(written by ASE)

576 atoms
1 atom types

0.0      15.106962080147035  xlo xhi
0.0      15.106962080147035  ylo yhi
0.0             14.24298044  zlo zhi

Masses

     1      12.010999996910238 # C

Atoms # atomic

     1   1                       0                       0      1.7803725549999998
     2   1  4.0157712815440443e-18      1.2589135066789197      2.6705588325000003
     3   1      3.7767405200367592      1.2589135066789194                       0
     4   1      3.7767405200367588      2.5178270133578389     0.89018627750000001
     5   1      1.2589135066789197      1.2589135066789197                       0
     6   1      1.2589135066789201      2.5178270133578393     0.89018627750000001
     7   1 -5.7003816493565703e-17      2.5178270133578389      1.7803725549999998
     8   1  -3.393962956122973e-17      3.7767405200367592      2.6705588325000003
     9   1      2.5178270133578389      2.5178270133578389      1.7803725549999998
    10   1       2.517827013357838      3.7767405200367588      2.6705588325000003
    11   1      1.2589135066789192      3.7767405200367596                       0
    12   1      1.2589135066789194  3.1803426301829905e-16     0.89018627750000001
    13   1      3.7767405200367592      3.7767405200367592                       0
    14   1      3.7767405200367592  7.2416807202558797e-16     0.89018627750000001
    15   1      2.5178270133578398  2.9511150654477316e-16      1.7803725549999998
    16   1      2.5178270133578384       1.258913506678921      2.6705588325000003
    17   1                       0                       0      5.3411176649999996
    18   1  4.0157712815440443e-18      1.2589135066789197      6.2313039425000003
    19   1      3.7767405200367592      1.2589135066789194              3.56074511
    20   1      3.7767405200367588      2.5178270133578389      4.4509313874999998
    21   1      1.2589135066789197      1.2589135066789197              3.56074511
    22   1      1.2589135066789201      2.5178270133578393      4.4509313874999998
    23   1 -5.7003816493565703e-17      2.5178270133578389      5.3411176649999996
    24   1  -3.393962956122973e-17      3.7767405200367592      6.2313039425000003
    25   1      2.5178270133578389      2.5178270133578389      5.3411176649999996
    26   1       2.517827013357838      3.7767405200367588      6.2313039425000003
    27   1      1.2589135066789192      3.7767405200367596              3.56074511
    28   1      1.2589135066789194  3.1803426301829905e-16      4.4509313874999998
    29   1      3.7767405200367592      3.7767405200367592              3.56074511
    30   1      3.7767405200367592  7.2416807202558797e-16      4.4509313874999998
    31   1      2.5178270133578398  2.9511150654477316e-16      5.3411176649999996
    32   1      2.5178270133578384       1.258913506678921      6.2313039425000003
    33   1                       0                       0      8.9018627749999997
    34   1  4.0157712815440443e-18      1.2589135066789197      9.7920490525000012
    35   1      3.7767405200367592      1.2589135066789194      7.1214902200000001
    36   1      3.7767405200367588      2.5178270133578389      8.0116764974999999
    37   1      1.2589135066789197      1.2589135066789197      7.1214902200000001
    38   1      1.2589135066789201      2.5178270133578393      8.0116764974999999
    39   1 -5.7003816493565703e-17      2.5178270133578389      8.9018627749999997
    40   1  -3.393962956122973e-17      3.7767405200367592      9.7920490525000012
    41   1      2.5178270133578389      2.5178270133578389      8.9018627749999997
    42   1       2.517827013357838      3.7767405200367588      9.7920490525000012
    43   1      1.2589135066789192      3.7767405200367596      7.1214902200000001
    44   1      1.2589135066789194  3.1803426301829905e-16      8.0116764974999999
    45   1      3.7767405200367592      3.7767405200367592      7.1214902200000001
    46   1      3.7767405200367592  7.2416807202558797e-16      8.0116764974999999
    47   1      2.5178270133578398  2.9511150654477316e-16      8.9018627749999997
    48   1      2.5178270133578384       1.258913506678921      9.7920490525000012
    49   1                       0                       0      12.462607885000001
    50   1  4.0157712815440443e-18      1.2589135066789197           13.3527941625
    51   1      3.7767405200367592      1.2589135066789194      10.682235330000001
    52   1      3.7767405200367588      2.5178270133578389      11.572421607500001
    53   1      1.2589135066789197      1.2589135066789197      10.682235330000001
    54   1      1.2589135066789201      2.5178270133578393      11.572421607500001
    55   1 -5.7003816493565703e-17      2.5178270133578389      12.462607885000001
    56   1  -3.393962956122973e-17      3.7767405200367592           13.3527941625
    57   1      2.5178270133578389      2.5178270133578389      12.462607885000001
    58   1       2.517827013357838      3.7767405200367588           13.3527941625
    59   1      1.2589135066789192      3.7767405200367596      10.682235330000001
    60   1      1.2589135066789194  3.1803426301829905e-16      11.572421607500001
    61   1      3.7767405200367592      3.7767405200367592      10.682235330000001
    62   1      3.7767405200367592  7.2416807202558797e-16      11.572421607500001
    63   1      2.5178270133578398  2.9511150654477316e-16      12.462607885000001
    64   1      2.5178270133578384       1.258913506678921           13.3527941625
    65   1  1.6063085126176177e-17      5.0356540267156786      1.7803725549999998
    66   1 -1.5597880511144922e-16      6.2945675333945976      2.6705588325000003
    67   1      3.7767405200367592      6.2945675333945985                       0
    68   1      3.7767405200367592      7.5534810400735175     0.89018627750000001
    69   1      1.2589135066789199      6.2945675333945985                       0
    70   1      1.2589135066789201      7.5534810400735184     0.89018627750000001
    71   1  1.1606851450098799e-16      7.5534810400735175      1.7803725549999998
    72   1  2.0416806048997776e-16      8.8123945467524383      2.6705588325000003
    73   1      2.5178270133578393      7.5534810400735175      1.7803725549999998
    74   1      2.5178270133578375      8.8123945467524365      2.6705588325000003
    75   1      1.2589135066789194      8.8123945467524383                       0
    76   1      1.2589135066789192      5.0356540267156786     0.89018627750000001
    77   1      3.7767405200367601      8.8123945467524383                       0
    78   1      3.7767405200367592      5.0356540267156795     0.89018627750000001
    79   1      2.5178270133578398      5.0356540267156786      1.7803725549999998
    80   1      2.5178270133578384      6.2945675333945994      2.6705588325000003
    81   1  1.6063085126176177e-17      5.0356540267156786      5.3411176649999996
    82   1 -1.5597880511144922e-16      6.2945675333945976      6.2313039425000003
    83   1      3.7767405200367592      6.2945675333945985              3.56074511
    84   1      3.7767405200367592      7.5534810400735175      4.4509313874999998
    85   1      1.2589135066789199      6.2945675333945985              3.56074511
    86   1      1.2589135066789201      7.5534810400735184      4.4509313874999998
    87   1  1.1606851450098799e-16      7.5534810400735175      5.3411176649999996
    88   1  2.0416806048997776e-16      8.8123945467524383      6.2313039425000003
    89   1      2.5178270133578393      7.5534810400735175      5.3411176649999996
    90   1      2.5178270133578375      8.8123945467524365      6.2313039425000003
    91   1      1.2589135066789194      8.8123945467524383              3.56074511
    92   1      1.2589135066789192      5.0356540267156786      4.4509313874999998
    93   1      3.7767405200367601      8.8123945467524383              3.56074511
    94   1      3.7767405200367592      5.0356540267156795      4.4509313874999998
    95   1      2.5178270133578398      5.0356540267156786      5.3411176649999996
    96   1      2.5178270133578384      6.2945675333945994      6.2313039425000003
    97   1  1.6063085126176177e-17      5.0356540267156786      8.9018627749999997
    98   1 -1.5597880511144922e-16      6.2945675333945976      9.7920490525000012
    99   1      3.7767405200367592      6.2945675333945985      7.1214902200000001
   100   1      3.7767405200367592      7.5534810400735175      8.0116764974999999
   101   1      1.2589135066789199      6.2945675333945985      7.1214902200000001
   102   1      1.2589135066789201      7.5534810400735184      8.0116764974999999
   103   1  1.1606851450098799e-16      7.5534810400735175      8.9018627749999997
   104   1  2.0416806048997776e-16      8.8123945467524383      9.7920490525000012
   105   1      2.5178270133578393      7.5534810400735175      8.9018627749999997
   106   1      2.5178270133578375      8.8123945467524365      9.7920490525000012
   107   1      1.2589135066789194      8.8123945467524383      7.1214902200000001
   108   1      1.2589135066789192      5.0356540267156786      8.0116764974999999
   109   1      3.7767405200367601      8.8123945467524383      7.1214902200000001
   110   1      3.7767405200367592      5.0356540267156795      8.0116764974999999
   111   1      2.5178270133578398      5.0356540267156786      8.9018627749999997
   112   1      2.5178270133578384      6.2945675333945994      9.7920490525000012
   113   1  1.6063085126176177e-17      5.0356540267156786      12.462607885000001
   114   1 -1.5597880511144922e-16      6.2945675333945976           13.3527941625
   115   1      3.7767405200367592      6.2945675333945985      10.682235330000001
   116   1      3.7767405200367592      7.5534810400735175      11.572421607500001
   117   1      1.2589135066789199      6.2945675333945985      10.682235330000001
   118   1      1.2589135066789201      7.5534810400735184      11.572421607500001
   119   1  1.1606851450098799e-16      7.5534810400735175      12.462607885000001
   120   1  2.0416806048997776e-16      8.8123945467524383           13.3527941625
   121   1      2.5178270133578393      7.5534810400735175      12.462607885000001
   122   1      2.5178270133578375      8.8123945467524365           13.3527941625
   123   1      1.2589135066789194      8.8123945467524383      10.682235330000001
   124   1      1.2589135066789192      5.0356540267156786      11.572421607500001
   125   1      3.7767405200367601      8.8123945467524383      10.682235330000001
   126   1      3.7767405200367592      5.0356540267156795      11.572421607500001
   127   1      2.5178270133578398      5.0356540267156786      12.462607885000001
   128   1      2.5178270133578384      6.2945675333945994           13.3527941625
   129   1  3.2126170252352354e-17      10.071308053431357      1.7803725549999998
   130   1 -1.3991571998527305e-16      11.330221560110276      2.6705588325000003
   131   1      3.7767405200367596      11.330221560110276                       0
   132   1      3.7767405200367605      12.589135066789197     0.89018627750000001
   133   1       1.258913506678919      11.330221560110276                       0
   134   1      1.2589135066789205      12.589135066789197     0.89018627750000001
   135   1 -3.1195761022289845e-16      12.589135066789195      1.7803725549999998
   136   1  3.6283371992706482e-17      13.848048573468118      2.6705588325000003
   137   1      2.5178270133578389      12.589135066789195      1.7803725549999998
   138   1      2.5178270133578375      13.848048573468116      2.6705588325000003
   139   1      1.2589135066789192      13.848048573468118                       0
   140   1      1.2589135066789192      10.071308053431357     0.89018627750000001
   141   1      3.7767405200367596      13.848048573468116                       0
   142   1      3.7767405200367592      10.071308053431359     0.89018627750000001
   143   1      2.5178270133578406      10.071308053431357      1.7803725549999998
   144   1      2.5178270133578389       11.33022156011028      2.6705588325000003
   145   1  3.2126170252352354e-17      10.071308053431357      5.3411176649999996
   146   1 -1.3991571998527305e-16      11.330221560110276      6.2313039425000003
   147   1      3.7767405200367596      11.330221560110276              3.56074511
   148   1      3.7767405200367605      12.589135066789197      4.4509313874999998
   149   1       1.258913506678919      11.330221560110276              3.56074511
   150   1      1.2589135066789205      12.589135066789197      4.4509313874999998
   151   1 -3.1195761022289845e-16      12.589135066789195      5.3411176649999996
   152   1  3.6283371992706482e-17      13.848048573468118      6.2313039425000003
   153   1      2.5178270133578389      12.589135066789195      5.3411176649999996
   154   1      2.5178270133578375      13.848048573468116      6.2313039425000003
   155   1      1.2589135066789192      13.848048573468118              3.56074511
   156   1      1.2589135066789192      10.071308053431357      4.4509313874999998
   157   1      3.7767405200367596      13.848048573468116              3.56074511
   158   1      3.7767405200367592      10.071308053431359      4.4509313874999998
   159   1      2.5178270133578406      10.071308053431357      5.3411176649999996
   160   1      2.5178270133578389       11.33022156011028      6.2313039425000003
   161   1  3.2126170252352354e-17      10.071308053431357      8.9018627749999997
   162   1 -1.3991571998527305e-16      11.330221560110276      9.7920490525000012
   163   1      3.7767405200367596      11.330221560110276      7.1214902200000001
   164   1      3.7767405200367605      12.589135066789197      8.0116764974999999
   165   1       1.258913506678919      11.330221560110276      7.1214902200000001
   166   1      1.2589135066789205      12.589135066789197      8.0116764974999999
   167   1 -3.1195761022289845e-16      12.589135066789195      8.9018627749999997
   168   1  3.6283371992706482e-17      13.848048573468118      9.7920490525000012
   169   1      2.5178270133578389      12.589135066789195      8.9018627749999997
   170   1      2.5178270133578375      13.848048573468116      9.7920490525000012
   171   1      1.2589135066789192      13.848048573468118      7.1214902200000001
   172   1      1.2589135066789192      10.071308053431357      8.0116764974999999
   173   1      3.7767405200367596      13.848048573468116      7.1214902200000001
   174   1      3.7767405200367592      10.071308053431359      8.0116764974999999
   175   1      2.5178270133578406      10.071308053431357      8.9018627749999997
   176   1      2.5178270133578389       11.33022156011028      9.7920490525000012
   177   1  3.2126170252352354e-17      10.071308053431357      12.462607885000001
   178   1 -1.3991571998527305e-16      11.330221560110276           13.3527941625
   179   1      3.7767405200367596      11.330221560110276      10.682235330000001
   180   1      3.7767405200367605      12.589135066789197      11.572421607500001
   181   1       1.258913506678919      11.330221560110276      10.682235330000001
   182   1      1.2589135066789205      12.589135066789197      11.572421607500001
   183   1 -3.1195761022289845e-16      12.589135066789195      12.462607885000001
   184   1  3.6283371992706482e-17      13.848048573468118           13.3527941625
   185   1      2.5178270133578389      12.589135066789195      12.462607885000001
   186   1      2.5178270133578375      13.848048573468116           13.3527941625
   187   1      1.2589135066789192      13.848048573468118      10.682235330000001
   188   1      1.2589135066789192      10.071308053431357      11.572421607500001
   189   1      3.7767405200367596      13.848048573468116      10.682235330000001
   190   1      3.7767405200367592      10.071308053431359      11.572421607500001
   191   1      2.5178270133578406      10.071308053431357      12.462607885000001
   192   1      2.5178270133578389       11.33022156011028           13.3527941625
   193   1      5.0356540267156786  1.6063085126176177e-17      1.7803725549999998
   194   1      5.0356540267156786      1.2589135066789192      2.6705588325000003
   195   1      8.8123945467524383      1.2589135066789194                       0
   196   1      8.8123945467524383      2.5178270133578384     0.89018627750000001
   197   1      6.2945675333945985      1.2589135066789199                       0
   198   1      6.2945675333945985      2.5178270133578393     0.89018627750000001
   199   1      5.0356540267156786      2.5178270133578389      1.7803725549999998
   200   1      5.0356540267156786      3.7767405200367596      2.6705588325000003
   201   1      7.5534810400735175      2.5178270133578393      1.7803725549999998
   202   1      7.5534810400735166      3.7767405200367583      2.6705588325000003
   203   1      6.2945675333945976      3.7767405200367596                       0
   204   1      6.2945675333945976 -1.5597880511144922e-16     0.89018627750000001
   205   1      8.8123945467524383      3.7767405200367601                       0
   206   1      8.8123945467524383  2.0416806048997776e-16     0.89018627750000001
   207   1      7.5534810400735184  -6.787925912245946e-17      1.7803725549999998
   208   1      7.5534810400735166      1.2589135066789214      2.6705588325000003
   209   1      5.0356540267156786  1.6063085126176177e-17      5.3411176649999996
   210   1      5.0356540267156786      1.2589135066789192      6.2313039425000003
   211   1      8.8123945467524383      1.2589135066789194              3.56074511
   212   1      8.8123945467524383      2.5178270133578384      4.4509313874999998
   213   1      6.2945675333945985      1.2589135066789199              3.56074511
   214   1      6.2945675333945985      2.5178270133578393      4.4509313874999998
   215   1      5.0356540267156786      2.5178270133578389      5.3411176649999996
   216   1      5.0356540267156786      3.7767405200367596      6.2313039425000003
   217   1      7.5534810400735175      2.5178270133578393      5.3411176649999996
   218   1      7.5534810400735166      3.7767405200367583      6.2313039425000003
   219   1      6.2945675333945976      3.7767405200367596              3.56074511
   220   1      6.2945675333945976 -1.5597880511144922e-16      4.4509313874999998
   221   1      8.8123945467524383      3.7767405200367601              3.56074511
   222   1      8.8123945467524383  2.0416806048997776e-16      4.4509313874999998
   223   1      7.5534810400735184  -6.787925912245946e-17      5.3411176649999996
   224   1      7.5534810400735166      1.2589135066789214      6.2313039425000003
   225   1      5.0356540267156786  1.6063085126176177e-17      8.9018627749999997
   226   1      5.0356540267156786      1.2589135066789192      9.7920490525000012
   227   1      8.8123945467524383      1.2589135066789194      7.1214902200000001
   228   1      8.8123945467524383      2.5178270133578384      8.0116764974999999
   229   1      6.2945675333945985      1.2589135066789199      7.1214902200000001
   230   1      6.2945675333945985      2.5178270133578393      8.0116764974999999
   231   1      5.0356540267156786      2.5178270133578389      8.9018627749999997
   232   1      5.0356540267156786      3.7767405200367596      9.7920490525000012
   233   1      7.5534810400735175      2.5178270133578393      8.9018627749999997
   234   1      7.5534810400735166      3.7767405200367583      9.7920490525000012
   235   1      6.2945675333945976      3.7767405200367596      7.1214902200000001
   236   1      6.2945675333945976 -1.5597880511144922e-16      8.0116764974999999
   237   1      8.8123945467524383      3.7767405200367601      7.1214902200000001
   238   1      8.8123945467524383  2.0416806048997776e-16      8.0116764974999999
   239   1      7.5534810400735184  -6.787925912245946e-17      8.9018627749999997
   240   1      7.5534810400735166      1.2589135066789214      9.7920490525000012
   241   1      5.0356540267156786  1.6063085126176177e-17      12.462607885000001
   242   1      5.0356540267156786      1.2589135066789192           13.3527941625
   243   1      8.8123945467524383      1.2589135066789194      10.682235330000001
   244   1      8.8123945467524383      2.5178270133578384      11.572421607500001
   245   1      6.2945675333945985      1.2589135066789199      10.682235330000001
   246   1      6.2945675333945985      2.5178270133578393      11.572421607500001
   247   1      5.0356540267156786      2.5178270133578389      12.462607885000001
   248   1      5.0356540267156786      3.7767405200367596           13.3527941625
   249   1      7.5534810400735175      2.5178270133578393      12.462607885000001
   250   1      7.5534810400735166      3.7767405200367583           13.3527941625
   251   1      6.2945675333945976      3.7767405200367596      10.682235330000001
   252   1      6.2945675333945976 -1.5597880511144922e-16      11.572421607500001
   253   1      8.8123945467524383      3.7767405200367601      10.682235330000001
   254   1      8.8123945467524383  2.0416806048997776e-16      11.572421607500001
   255   1      7.5534810400735184  -6.787925912245946e-17      12.462607885000001
   256   1      7.5534810400735166      1.2589135066789214           13.3527941625
   257   1      5.0356540267156786      5.0356540267156786      1.7803725549999998
   258   1      5.0356540267156786      6.2945675333945976      2.6705588325000003
   259   1      8.8123945467524383      6.2945675333945985                       0
   260   1      8.8123945467524383      7.5534810400735184     0.89018627750000001
   261   1      6.2945675333945976      6.2945675333945976                       0
   262   1      6.2945675333945994      7.5534810400735184     0.89018627750000001
   263   1      5.0356540267156777      7.5534810400735175      1.7803725549999998
   264   1      5.0356540267156795      8.8123945467524383      2.6705588325000003
   265   1      7.5534810400735175      7.5534810400735175      1.7803725549999998
   266   1      7.5534810400735166      8.8123945467524365      2.6705588325000003
   267   1      6.2945675333945985      8.8123945467524383                       0
   268   1      6.2945675333945976      5.0356540267156786     0.89018627750000001
   269   1      8.8123945467524383      8.8123945467524383                       0
   270   1      8.8123945467524383      5.0356540267156795     0.89018627750000001
   271   1      7.5534810400735193      5.0356540267156795      1.7803725549999998
   272   1      7.5534810400735175      6.2945675333946003      2.6705588325000003
   273   1      5.0356540267156786      5.0356540267156786      5.3411176649999996
   274   1      5.0356540267156786      6.2945675333945976      6.2313039425000003
   275   1      8.8123945467524383      6.2945675333945985              3.56074511
   276   1      8.8123945467524383      7.5534810400735184      4.4509313874999998
   277   1      6.2945675333945976      6.2945675333945976              3.56074511
   278   1      6.2945675333945994      7.5534810400735184      4.4509313874999998
   279   1      5.0356540267156777      7.5534810400735175      5.3411176649999996
   280   1      5.0356540267156795      8.8123945467524383      6.2313039425000003
   281   1      7.5534810400735175      7.5534810400735175      5.3411176649999996
   282   1      7.5534810400735166      8.8123945467524365      6.2313039425000003
   283   1      6.2945675333945985      8.8123945467524383              3.56074511
   284   1      6.2945675333945976      5.0356540267156786      4.4509313874999998
   285   1      8.8123945467524383      8.8123945467524383              3.56074511
   286   1      8.8123945467524383      5.0356540267156795      4.4509313874999998
   287   1      7.5534810400735193      5.0356540267156795      5.3411176649999996
   288   1      7.5534810400735175      6.2945675333946003      6.2313039425000003
   289   1      5.0356540267156786      5.0356540267156786      8.9018627749999997
   290   1      5.0356540267156786      6.2945675333945976      9.7920490525000012
   291   1      8.8123945467524383      6.2945675333945985      7.1214902200000001
   292   1      8.8123945467524383      7.5534810400735184      8.0116764974999999
   293   1      6.2945675333945976      6.2945675333945976      7.1214902200000001
   294   1      6.2945675333945994      7.5534810400735184      8.0116764974999999
   295   1      5.0356540267156777      7.5534810400735175      8.9018627749999997
   296   1      5.0356540267156795      8.8123945467524383      9.7920490525000012
   297   1      7.5534810400735175      7.5534810400735175      8.9018627749999997
   298   1      7.5534810400735166      8.8123945467524365      9.7920490525000012
   299   1      6.2945675333945985      8.8123945467524383      7.1214902200000001
   300   1      6.2945675333945976      5.0356540267156786      8.0116764974999999
   301   1      8.8123945467524383      8.8123945467524383      7.1214902200000001
   302   1      8.8123945467524383      5.0356540267156795      8.0116764974999999
   303   1      7.5534810400735193      5.0356540267156795      8.9018627749999997
   304   1      7.5534810400735175      6.2945675333946003      9.7920490525000012
   305   1      5.0356540267156786      5.0356540267156786      12.462607885000001
   306   1      5.0356540267156786      6.2945675333945976           13.3527941625
   307   1      8.8123945467524383      6.2945675333945985      10.682235330000001
   308   1      8.8123945467524383      7.5534810400735184      11.572421607500001
   309   1      6.2945675333945976      6.2945675333945976      10.682235330000001
   310   1      6.2945675333945994      7.5534810400735184      11.572421607500001
   311   1      5.0356540267156777      7.5534810400735175      12.462607885000001
   312   1      5.0356540267156795      8.8123945467524383           13.3527941625
   313   1      7.5534810400735175      7.5534810400735175      12.462607885000001
   314   1      7.5534810400735166      8.8123945467524365           13.3527941625
   315   1      6.2945675333945985      8.8123945467524383      10.682235330000001
   316   1      6.2945675333945976      5.0356540267156786      11.572421607500001
   317   1      8.8123945467524383      8.8123945467524383      10.682235330000001
   318   1      8.8123945467524383      5.0356540267156795      11.572421607500001
   319   1      7.5534810400735193      5.0356540267156795      12.462607885000001
   320   1      7.5534810400735175      6.2945675333946003           13.3527941625
   321   1      5.0356540267156795      10.071308053431357      1.7803725549999998
   322   1      5.0356540267156795      11.330221560110278      2.6705588325000003
   323   1      8.8123945467524383      11.330221560110276                       0
   324   1      8.8123945467524383      12.589135066789195     0.89018627750000001
   325   1      6.2945675333945994      11.330221560110278                       0
   326   1      6.2945675333945985      12.589135066789197     0.89018627750000001
   327   1      5.0356540267156795      12.589135066789197      1.7803725549999998
   328   1      5.0356540267156786      13.848048573468116      2.6705588325000003
   329   1      7.5534810400735184      12.589135066789197      1.7803725549999998
   330   1      7.5534810400735175      13.848048573468116      2.6705588325000003
   331   1      6.2945675333945976      13.848048573468116                       0
   332   1      6.2945675333945994      10.071308053431359     0.89018627750000001
   333   1        8.81239454675244       13.84804857346812                       0
   334   1        8.81239454675244      10.071308053431359     0.89018627750000001
   335   1      7.5534810400735184      10.071308053431357      1.7803725549999998
   336   1      7.5534810400735175      11.330221560110278      2.6705588325000003
   337   1      5.0356540267156795      10.071308053431357      5.3411176649999996
   338   1      5.0356540267156795      11.330221560110278      6.2313039425000003
   339   1      8.8123945467524383      11.330221560110276              3.56074511
   340   1      8.8123945467524383      12.589135066789195      4.4509313874999998
   341   1      6.2945675333945994      11.330221560110278              3.56074511
   342   1      6.2945675333945985      12.589135066789197      4.4509313874999998
   343   1      5.0356540267156795      12.589135066789197      5.3411176649999996
   344   1      5.0356540267156786      13.848048573468116      6.2313039425000003
   345   1      7.5534810400735184      12.589135066789197      5.3411176649999996
   346   1      7.5534810400735175      13.848048573468116      6.2313039425000003
   347   1      6.2945675333945976      13.848048573468116              3.56074511
   348   1      6.2945675333945994      10.071308053431359      4.4509313874999998
   349   1        8.81239454675244       13.84804857346812              3.56074511
   350   1        8.81239454675244      10.071308053431359      4.4509313874999998
   351   1      7.5534810400735184      10.071308053431357      5.3411176649999996
   352   1      7.5534810400735175      11.330221560110278      6.2313039425000003
   353   1      5.0356540267156795      10.071308053431357      8.9018627749999997
   354   1      5.0356540267156795      11.330221560110278      9.7920490525000012
   355   1      8.8123945467524383      11.330221560110276      7.1214902200000001
   356   1      8.8123945467524383      12.589135066789195      8.0116764974999999
   357   1      6.2945675333945994      11.330221560110278      7.1214902200000001
   358   1      6.2945675333945985      12.589135066789197      8.0116764974999999
   359   1      5.0356540267156795      12.589135066789197      8.9018627749999997
   360   1      5.0356540267156786      13.848048573468116      9.7920490525000012
   361   1      7.5534810400735184      12.589135066789197      8.9018627749999997
   362   1      7.5534810400735175      13.848048573468116      9.7920490525000012
   363   1      6.2945675333945976      13.848048573468116      7.1214902200000001
   364   1      6.2945675333945994      10.071308053431359      8.0116764974999999
   365   1        8.81239454675244       13.84804857346812      7.1214902200000001
   366   1        8.81239454675244      10.071308053431359      8.0116764974999999
   367   1      7.5534810400735184      10.071308053431357      8.9018627749999997
   368   1      7.5534810400735175      11.330221560110278      9.7920490525000012
   369   1      5.0356540267156795      10.071308053431357      12.462607885000001
   370   1      5.0356540267156795      11.330221560110278           13.3527941625
   371   1      8.8123945467524383      11.330221560110276      10.682235330000001
   372   1      8.8123945467524383      12.589135066789195      11.572421607500001
   373   1      6.2945675333945994      11.330221560110278      10.682235330000001
   374   1      6.2945675333945985      12.589135066789197      11.572421607500001
   375   1      5.0356540267156795      12.589135066789197      12.462607885000001
   376   1      5.0356540267156786      13.848048573468116           13.3527941625
   377   1      7.5534810400735184      12.589135066789197      12.462607885000001
   378   1      7.5534810400735175      13.848048573468116           13.3527941625
   379   1      6.2945675333945976      13.848048573468116      10.682235330000001
   380   1      6.2945675333945994      10.071308053431359      11.572421607500001
   381   1        8.81239454675244       13.84804857346812      10.682235330000001
   382   1        8.81239454675244      10.071308053431359      11.572421607500001
   383   1      7.5534810400735184      10.071308053431357      12.462607885000001
   384   1      7.5534810400735175      11.330221560110278           13.3527941625
   385   1      10.071308053431357  3.2126170252352354e-17      1.7803725549999998
   386   1      10.071308053431357      1.2589135066789192      2.6705588325000003
   387   1      13.848048573468116      1.2589135066789205                       0
   388   1      13.848048573468118      2.5178270133578406     0.89018627750000001
   389   1      11.330221560110276       1.258913506678919                       0
   390   1      11.330221560110278      2.5178270133578398     0.89018627750000001
   391   1      10.071308053431357      2.5178270133578384      1.7803725549999998
   392   1      10.071308053431357      3.7767405200367601      2.6705588325000003
   393   1      12.589135066789195      2.5178270133578389      1.7803725549999998
   394   1      12.589135066789195      3.7767405200367588      2.6705588325000003
   395   1      11.330221560110276      3.7767405200367596                       0
   396   1      11.330221560110276 -1.3991571998527305e-16     0.89018627750000001
   397   1      13.848048573468116      3.7767405200367596                       0
   398   1      13.848048573468116  1.2923573389397266e-15     0.89018627750000001
   399   1      12.589135066789197   1.464399229177352e-15      1.7803725549999998
   400   1      12.589135066789195      1.2589135066789219      2.6705588325000003
   401   1      10.071308053431357  3.2126170252352354e-17      5.3411176649999996
   402   1      10.071308053431357      1.2589135066789192      6.2313039425000003
   403   1      13.848048573468116      1.2589135066789205              3.56074511
   404   1      13.848048573468118      2.5178270133578406      4.4509313874999998
   405   1      11.330221560110276       1.258913506678919              3.56074511
   406   1      11.330221560110278      2.5178270133578398      4.4509313874999998
   407   1      10.071308053431357      2.5178270133578384      5.3411176649999996
   408   1      10.071308053431357      3.7767405200367601      6.2313039425000003
   409   1      12.589135066789195      2.5178270133578389      5.3411176649999996
   410   1      12.589135066789195      3.7767405200367588      6.2313039425000003
   411   1      11.330221560110276      3.7767405200367596              3.56074511
   412   1      11.330221560110276 -1.3991571998527305e-16      4.4509313874999998
   413   1      13.848048573468116      3.7767405200367596              3.56074511
   414   1      13.848048573468116  1.2923573389397266e-15      4.4509313874999998
   415   1      12.589135066789197   1.464399229177352e-15      5.3411176649999996
   416   1      12.589135066789195      1.2589135066789219      6.2313039425000003
   417   1      10.071308053431357  3.2126170252352354e-17      8.9018627749999997
   418   1      10.071308053431357      1.2589135066789192      9.7920490525000012
   419   1      13.848048573468116      1.2589135066789205      7.1214902200000001
   420   1      13.848048573468118      2.5178270133578406      8.0116764974999999
   421   1      11.330221560110276       1.258913506678919      7.1214902200000001
   422   1      11.330221560110278      2.5178270133578398      8.0116764974999999
   423   1      10.071308053431357      2.5178270133578384      8.9018627749999997
   424   1      10.071308053431357      3.7767405200367601      9.7920490525000012
   425   1      12.589135066789195      2.5178270133578389      8.9018627749999997
   426   1      12.589135066789195      3.7767405200367588      9.7920490525000012
   427   1      11.330221560110276      3.7767405200367596      7.1214902200000001
   428   1      11.330221560110276 -1.3991571998527305e-16      8.0116764974999999
   429   1      13.848048573468116      3.7767405200367596      7.1214902200000001
   430   1      13.848048573468116  1.2923573389397266e-15      8.0116764974999999
   431   1      12.589135066789197   1.464399229177352e-15      8.9018627749999997
   432   1      12.589135066789195      1.2589135066789219      9.7920490525000012
   433   1      10.071308053431357  3.2126170252352354e-17      12.462607885000001
   434   1      10.071308053431357      1.2589135066789192           13.3527941625
   435   1      13.848048573468116      1.2589135066789205      10.682235330000001
   436   1      13.848048573468118      2.5178270133578406      11.572421607500001
   437   1      11.330221560110276       1.258913506678919      10.682235330000001
   438   1      11.330221560110278      2.5178270133578398      11.572421607500001
   439   1      10.071308053431357      2.5178270133578384      12.462607885000001
   440   1      10.071308053431357      3.7767405200367601           13.3527941625
   441   1      12.589135066789195      2.5178270133578389      12.462607885000001
   442   1      12.589135066789195      3.7767405200367588           13.3527941625
   443   1      11.330221560110276      3.7767405200367596      10.682235330000001
   444   1      11.330221560110276 -1.3991571998527305e-16      11.572421607500001
   445   1      13.848048573468116      3.7767405200367596      10.682235330000001
   446   1      13.848048573468116  1.2923573389397266e-15      11.572421607500001
   447   1      12.589135066789197   1.464399229177352e-15      12.462607885000001
   448   1      12.589135066789195      1.2589135066789219           13.3527941625
   449   1      10.071308053431357      5.0356540267156795      1.7803725549999998
   450   1      10.071308053431359      6.2945675333945994      2.6705588325000003
   451   1      13.848048573468116      6.2945675333945976                       0
   452   1      13.848048573468116      7.5534810400735175     0.89018627750000001
   453   1      11.330221560110278      6.2945675333945994                       0
   454   1      11.330221560110278      7.5534810400735184     0.89018627750000001
   455   1      10.071308053431357      7.5534810400735184      1.7803725549999998
   456   1      10.071308053431357      8.8123945467524383      2.6705588325000003
   457   1      12.589135066789197      7.5534810400735184      1.7803725549999998
   458   1      12.589135066789195      8.8123945467524383      2.6705588325000003
   459   1      11.330221560110276      8.8123945467524383                       0
   460   1      11.330221560110278      5.0356540267156795     0.89018627750000001
   461   1       13.84804857346812        8.81239454675244                       0
   462   1      13.848048573468118      5.0356540267156804     0.89018627750000001
   463   1      12.589135066789197      5.0356540267156786      1.7803725549999998
   464   1      12.589135066789195      6.2945675333946003      2.6705588325000003
   465   1      10.071308053431357      5.0356540267156795      5.3411176649999996
   466   1      10.071308053431359      6.2945675333945994      6.2313039425000003
   467   1      13.848048573468116      6.2945675333945976              3.56074511
   468   1      13.848048573468116      7.5534810400735175      4.4509313874999998
   469   1      11.330221560110278      6.2945675333945994              3.56074511
   470   1      11.330221560110278      7.5534810400735184      4.4509313874999998
   471   1      10.071308053431357      7.5534810400735184      5.3411176649999996
   472   1      10.071308053431357      8.8123945467524383      6.2313039425000003
   473   1      12.589135066789197      7.5534810400735184      5.3411176649999996
   474   1      12.589135066789195      8.8123945467524383      6.2313039425000003
   475   1      11.330221560110276      8.8123945467524383              3.56074511
   476   1      11.330221560110278      5.0356540267156795      4.4509313874999998
   477   1       13.84804857346812        8.81239454675244              3.56074511
   478   1      13.848048573468118      5.0356540267156804      4.4509313874999998
   479   1      12.589135066789197      5.0356540267156786      5.3411176649999996
   480   1      12.589135066789195      6.2945675333946003      6.2313039425000003
   481   1      10.071308053431357      5.0356540267156795      8.9018627749999997
   482   1      10.071308053431359      6.2945675333945994      9.7920490525000012
   483   1      13.848048573468116      6.2945675333945976      7.1214902200000001
   484   1      13.848048573468116      7.5534810400735175      8.0116764974999999
   485   1      11.330221560110278      6.2945675333945994      7.1214902200000001
   486   1      11.330221560110278      7.5534810400735184      8.0116764974999999
   487   1      10.071308053431357      7.5534810400735184      8.9018627749999997
   488   1      10.071308053431357      8.8123945467524383      9.7920490525000012
   489   1      12.589135066789197      7.5534810400735184      8.9018627749999997
   490   1      12.589135066789195      8.8123945467524383      9.7920490525000012
   491   1      11.330221560110276      8.8123945467524383      7.1214902200000001
   492   1      11.330221560110278      5.0356540267156795      8.0116764974999999
   493   1       13.84804857346812        8.81239454675244      7.1214902200000001
   494   1      13.848048573468118      5.0356540267156804      8.0116764974999999
   495   1      12.589135066789197      5.0356540267156786      8.9018627749999997
   496   1      12.589135066789195      6.2945675333946003      9.7920490525000012
   497   1      10.071308053431357      5.0356540267156795      12.462607885000001
   498   1      10.071308053431359      6.2945675333945994           13.3527941625
   499   1      13.848048573468116      6.2945675333945976      10.682235330000001
   500   1      13.848048573468116      7.5534810400735175      11.572421607500001
   501   1      11.330221560110278      6.2945675333945994      10.682235330000001
   502   1      11.330221560110278      7.5534810400735184      11.572421607500001
   503   1      10.071308053431357      7.5534810400735184      12.462607885000001
   504   1      10.071308053431357      8.8123945467524383           13.3527941625
   505   1      12.589135066789197      7.5534810400735184      12.462607885000001
   506   1      12.589135066789195      8.8123945467524383           13.3527941625
   507   1      11.330221560110276      8.8123945467524383      10.682235330000001
   508   1      11.330221560110278      5.0356540267156795      11.572421607500001
   509   1       13.84804857346812        8.81239454675244      10.682235330000001
   510   1      13.848048573468118      5.0356540267156804      11.572421607500001
   511   1      12.589135066789197      5.0356540267156786      12.462607885000001
   512   1      12.589135066789195      6.2945675333946003           13.3527941625
   513   1      10.071308053431357      10.071308053431357      1.7803725549999998
   514   1      10.071308053431357      11.330221560110276      2.6705588325000003
   515   1      13.848048573468114      11.330221560110276                       0
   516   1      13.848048573468114      12.589135066789195     0.89018627750000001
   517   1      11.330221560110276      11.330221560110276                       0
   518   1      11.330221560110276      12.589135066789195     0.89018627750000001
   519   1      10.071308053431357      12.589135066789195      1.7803725549999998
   520   1      10.071308053431355      13.848048573468116      2.6705588325000003
   521   1      12.589135066789195      12.589135066789195      1.7803725549999998
   522   1      12.589135066789195      13.848048573468114      2.6705588325000003
   523   1      11.330221560110274      13.848048573468116                       0
   524   1      11.330221560110276      10.071308053431357     0.89018627750000001
   525   1      13.848048573468118      13.848048573468118                       0
   526   1      13.848048573468114      10.071308053431357     0.89018627750000001
   527   1      12.589135066789195      10.071308053431357      1.7803725549999998
   528   1      12.589135066789195      11.330221560110276      2.6705588325000003
   529   1      10.071308053431357      10.071308053431357      5.3411176649999996
   530   1      10.071308053431357      11.330221560110276      6.2313039425000003
   531   1      13.848048573468114      11.330221560110276              3.56074511
   532   1      13.848048573468114      12.589135066789195      4.4509313874999998
   533   1      11.330221560110276      11.330221560110276              3.56074511
   534   1      11.330221560110276      12.589135066789195      4.4509313874999998
   535   1      10.071308053431357      12.589135066789195      5.3411176649999996
   536   1      10.071308053431355      13.848048573468116      6.2313039425000003
   537   1      12.589135066789195      12.589135066789195      5.3411176649999996
   538   1      12.589135066789195      13.848048573468114      6.2313039425000003
   539   1      11.330221560110274      13.848048573468116              3.56074511
   540   1      11.330221560110276      10.071308053431357      4.4509313874999998
   541   1      13.848048573468118      13.848048573468118              3.56074511
   542   1      13.848048573468114      10.071308053431357      4.4509313874999998
   543   1      12.589135066789195      10.071308053431357      5.3411176649999996
   544   1      12.589135066789195      11.330221560110276      6.2313039425000003
   545   1      10.071308053431357      10.071308053431357      8.9018627749999997
   546   1      10.071308053431357      11.330221560110276      9.7920490525000012
   547   1      13.848048573468114      11.330221560110276      7.1214902200000001
   548   1      13.848048573468114      12.589135066789195      8.0116764974999999
   549   1      11.330221560110276      11.330221560110276      7.1214902200000001
   550   1      11.330221560110276      12.589135066789195      8.0116764974999999
   551   1      10.071308053431357      12.589135066789195      8.9018627749999997
   552   1      10.071308053431355      13.848048573468116      9.7920490525000012
   553   1      12.589135066789195      12.589135066789195      8.9018627749999997
   554   1      12.589135066789195      13.848048573468114      9.7920490525000012
   555   1      11.330221560110274      13.848048573468116      7.1214902200000001
   556   1      11.330221560110276      10.071308053431357      8.0116764974999999
   557   1      13.848048573468118      13.848048573468118      7.1214902200000001
   558   1      13.848048573468114      10.071308053431357      8.0116764974999999
   559   1      12.589135066789195      10.071308053431357      8.9018627749999997
   560   1      12.589135066789195      11.330221560110276      9.7920490525000012
   561   1      10.071308053431357      10.071308053431357      12.462607885000001
   562   1      10.071308053431357      11.330221560110276           13.3527941625
   563   1      13.848048573468114      11.330221560110276      10.682235330000001
   564   1      13.848048573468114      12.589135066789195      11.572421607500001
   565   1      11.330221560110276      11.330221560110276      10.682235330000001
   566   1      11.330221560110276      12.589135066789195      11.572421607500001
   567   1      10.071308053431357      12.589135066789195      12.462607885000001
   568   1      10.071308053431355      13.848048573468116           13.3527941625
   569   1      12.589135066789195      12.589135066789195      12.462607885000001
   570   1      12.589135066789195      13.848048573468114           13.3527941625
   571   1      11.330221560110274      13.848048573468116      10.682235330000001
   572   1      11.330221560110276      10.071308053431357      11.572421607500001
   573   1      13.848048573468118      13.848048573468118      10.682235330000001
   574   1      13.848048573468114      10.071308053431357      11.572421607500001
   575   1      12.589135066789195      10.071308053431357      12.462607885000001
   576   1      12.589135066789195      11.330221560110276           13.3527941625
