(written by ASE)

512 atoms
1 atom types

0.0      9.8256763599999992  xlo xhi
0.0      17.008685320000001  ylo yhi
0.0      28.030409479999999  zlo zhi

Masses

     1      12.010999996910238 # C

Atoms # atomic

     1   1      1.2282095449999999       3.897704715065045      1.7277965426279107
     2   1      1.2282095449999999     0.35446661493495563      5.2798058273720887
     3   1      1.2282095449999999      2.4805522799349555      1.7277965426279107
     4   1      1.2282095449999999      1.7716190500650442      5.2798058273720887
     5   1                       0      1.7716190500650442      1.7277965426279107
     6   1                       0      2.4805522799349555      5.2798058273720887
     7   1                       0     0.35446661493495563      1.7277965426279107
     8   1                       0       3.897704715065045      5.2798058273720887
     9   1      1.2282095449999999       3.897704715065045      8.7353989126279092
    10   1      1.2282095449999999     0.35446661493495563      12.287408197372088
    11   1      1.2282095449999999      2.4805522799349555      8.7353989126279092
    12   1      1.2282095449999999      1.7716190500650442      12.287408197372088
    13   1                       0      1.7716190500650442      8.7353989126279092
    14   1                       0      2.4805522799349555      12.287408197372088
    15   1                       0     0.35446661493495563      8.7353989126279092
    16   1                       0       3.897704715065045      12.287408197372088
    17   1      1.2282095449999999       3.897704715065045      15.743001282627908
    18   1      1.2282095449999999     0.35446661493495563      19.295010567372085
    19   1      1.2282095449999999      2.4805522799349555      15.743001282627908
    20   1      1.2282095449999999      1.7716190500650442      19.295010567372085
    21   1                       0      1.7716190500650442      15.743001282627908
    22   1                       0      2.4805522799349555      19.295010567372085
    23   1                       0     0.35446661493495563      15.743001282627908
    24   1                       0       3.897704715065045      19.295010567372085
    25   1      1.2282095449999999       3.897704715065045      22.750603652627905
    26   1      1.2282095449999999     0.35446661493495563      26.302612937372086
    27   1      1.2282095449999999      2.4805522799349555      22.750603652627905
    28   1      1.2282095449999999      1.7716190500650442      26.302612937372086
    29   1                       0      1.7716190500650442      22.750603652627905
    30   1                       0      2.4805522799349555      26.302612937372086
    31   1                       0     0.35446661493495563      22.750603652627905
    32   1                       0       3.897704715065045      26.302612937372086
    33   1      1.2282095449999999      8.1498760450650458      1.7277965426279107
    34   1      1.2282095449999999      4.6066379449349562      5.2798058273720887
    35   1      1.2282095449999999      6.7327236099349559      1.7277965426279107
    36   1      1.2282095449999999      6.0237903800650443      5.2798058273720887
    37   1                       0      6.0237903800650443      1.7277965426279107
    38   1                       0      6.7327236099349559      5.2798058273720887
    39   1                       0      4.6066379449349562      1.7277965426279107
    40   1                       0      8.1498760450650458      5.2798058273720887
    41   1      1.2282095449999999      8.1498760450650458      8.7353989126279092
    42   1      1.2282095449999999      4.6066379449349562      12.287408197372088
    43   1      1.2282095449999999      6.7327236099349559      8.7353989126279092
    44   1      1.2282095449999999      6.0237903800650443      12.287408197372088
    45   1                       0      6.0237903800650443      8.7353989126279092
    46   1                       0      6.7327236099349559      12.287408197372088
    47   1                       0      4.6066379449349562      8.7353989126279092
    48   1                       0      8.1498760450650458      12.287408197372088
    49   1      1.2282095449999999      8.1498760450650458      15.743001282627908
    50   1      1.2282095449999999      4.6066379449349562      19.295010567372085
    51   1      1.2282095449999999      6.7327236099349559      15.743001282627908
    52   1      1.2282095449999999      6.0237903800650443      19.295010567372085
    53   1                       0      6.0237903800650443      15.743001282627908
    54   1                       0      6.7327236099349559      19.295010567372085
    55   1                       0      4.6066379449349562      15.743001282627908
    56   1                       0      8.1498760450650458      19.295010567372085
    57   1      1.2282095449999999      8.1498760450650458      22.750603652627905
    58   1      1.2282095449999999      4.6066379449349562      26.302612937372086
    59   1      1.2282095449999999      6.7327236099349559      22.750603652627905
    60   1      1.2282095449999999      6.0237903800650443      26.302612937372086
    61   1                       0      6.0237903800650443      22.750603652627905
    62   1                       0      6.7327236099349559      26.302612937372086
    63   1                       0      4.6066379449349562      22.750603652627905
    64   1                       0      8.1498760450650458      26.302612937372086
    65   1      1.2282095449999999      12.402047375065045      1.7277965426279107
    66   1      1.2282095449999999      8.8588092749349556      5.2798058273720887
    67   1      1.2282095449999999      10.984894939934957      1.7277965426279107
    68   1      1.2282095449999999      10.275961710065046      5.2798058273720887
    69   1                       0      10.275961710065046      1.7277965426279107
    70   1                       0      10.984894939934957      5.2798058273720887
    71   1                       0      8.8588092749349556      1.7277965426279107
    72   1                       0      12.402047375065045      5.2798058273720887
    73   1      1.2282095449999999      12.402047375065045      8.7353989126279092
    74   1      1.2282095449999999      8.8588092749349556      12.287408197372088
    75   1      1.2282095449999999      10.984894939934957      8.7353989126279092
    76   1      1.2282095449999999      10.275961710065046      12.287408197372088
    77   1                       0      10.275961710065046      8.7353989126279092
    78   1                       0      10.984894939934957      12.287408197372088
    79   1                       0      8.8588092749349556      8.7353989126279092
    80   1                       0      12.402047375065045      12.287408197372088
    81   1      1.2282095449999999      12.402047375065045      15.743001282627908
    82   1      1.2282095449999999      8.8588092749349556      19.295010567372085
    83   1      1.2282095449999999      10.984894939934957      15.743001282627908
    84   1      1.2282095449999999      10.275961710065046      19.295010567372085
    85   1                       0      10.275961710065046      15.743001282627908
    86   1                       0      10.984894939934957      19.295010567372085
    87   1                       0      8.8588092749349556      15.743001282627908
    88   1                       0      12.402047375065045      19.295010567372085
    89   1      1.2282095449999999      12.402047375065045      22.750603652627905
    90   1      1.2282095449999999      8.8588092749349556      26.302612937372086
    91   1      1.2282095449999999      10.984894939934957      22.750603652627905
    92   1      1.2282095449999999      10.275961710065046      26.302612937372086
    93   1                       0      10.275961710065046      22.750603652627905
    94   1                       0      10.984894939934957      26.302612937372086
    95   1                       0      8.8588092749349556      22.750603652627905
    96   1                       0      12.402047375065045      26.302612937372086
    97   1      1.2282095449999999      16.654218705065048      1.7277965426279107
    98   1      1.2282095449999999      13.110980604934957      5.2798058273720887
    99   1      1.2282095449999999      15.237066269934957      1.7277965426279107
   100   1      1.2282095449999999      14.528133040065047      5.2798058273720887
   101   1                       0      14.528133040065047      1.7277965426279107
   102   1                       0      15.237066269934957      5.2798058273720887
   103   1                       0      13.110980604934957      1.7277965426279107
   104   1                       0      16.654218705065048      5.2798058273720887
   105   1      1.2282095449999999      16.654218705065048      8.7353989126279092
   106   1      1.2282095449999999      13.110980604934957      12.287408197372088
   107   1      1.2282095449999999      15.237066269934957      8.7353989126279092
   108   1      1.2282095449999999      14.528133040065047      12.287408197372088
   109   1                       0      14.528133040065047      8.7353989126279092
   110   1                       0      15.237066269934957      12.287408197372088
   111   1                       0      13.110980604934957      8.7353989126279092
   112   1                       0      16.654218705065048      12.287408197372088
   113   1      1.2282095449999999      16.654218705065048      15.743001282627908
   114   1      1.2282095449999999      13.110980604934957      19.295010567372085
   115   1      1.2282095449999999      15.237066269934957      15.743001282627908
   116   1      1.2282095449999999      14.528133040065047      19.295010567372085
   117   1                       0      14.528133040065047      15.743001282627908
   118   1                       0      15.237066269934957      19.295010567372085
   119   1                       0      13.110980604934957      15.743001282627908
   120   1                       0      16.654218705065048      19.295010567372085
   121   1      1.2282095449999999      16.654218705065048      22.750603652627905
   122   1      1.2282095449999999      13.110980604934957      26.302612937372086
   123   1      1.2282095449999999      15.237066269934957      22.750603652627905
   124   1      1.2282095449999999      14.528133040065047      26.302612937372086
   125   1                       0      14.528133040065047      22.750603652627905
   126   1                       0      15.237066269934957      26.302612937372086
   127   1                       0      13.110980604934957      22.750603652627905
   128   1                       0      16.654218705065048      26.302612937372086
   129   1      3.6846286349999997       3.897704715065045      1.7277965426279107
   130   1      3.6846286349999997     0.35446661493495563      5.2798058273720887
   131   1      3.6846286349999997      2.4805522799349555      1.7277965426279107
   132   1      3.6846286349999997      1.7716190500650442      5.2798058273720887
   133   1      2.4564190899999998      1.7716190500650442      1.7277965426279107
   134   1      2.4564190899999998      2.4805522799349555      5.2798058273720887
   135   1      2.4564190899999998     0.35446661493495563      1.7277965426279107
   136   1      2.4564190899999998       3.897704715065045      5.2798058273720887
   137   1      3.6846286349999997       3.897704715065045      8.7353989126279092
   138   1      3.6846286349999997     0.35446661493495563      12.287408197372088
   139   1      3.6846286349999997      2.4805522799349555      8.7353989126279092
   140   1      3.6846286349999997      1.7716190500650442      12.287408197372088
   141   1      2.4564190899999998      1.7716190500650442      8.7353989126279092
   142   1      2.4564190899999998      2.4805522799349555      12.287408197372088
   143   1      2.4564190899999998     0.35446661493495563      8.7353989126279092
   144   1      2.4564190899999998       3.897704715065045      12.287408197372088
   145   1      3.6846286349999997       3.897704715065045      15.743001282627908
   146   1      3.6846286349999997     0.35446661493495563      19.295010567372085
   147   1      3.6846286349999997      2.4805522799349555      15.743001282627908
   148   1      3.6846286349999997      1.7716190500650442      19.295010567372085
   149   1      2.4564190899999998      1.7716190500650442      15.743001282627908
   150   1      2.4564190899999998      2.4805522799349555      19.295010567372085
   151   1      2.4564190899999998     0.35446661493495563      15.743001282627908
   152   1      2.4564190899999998       3.897704715065045      19.295010567372085
   153   1      3.6846286349999997       3.897704715065045      22.750603652627905
   154   1      3.6846286349999997     0.35446661493495563      26.302612937372086
   155   1      3.6846286349999997      2.4805522799349555      22.750603652627905
   156   1      3.6846286349999997      1.7716190500650442      26.302612937372086
   157   1      2.4564190899999998      1.7716190500650442      22.750603652627905
   158   1      2.4564190899999998      2.4805522799349555      26.302612937372086
   159   1      2.4564190899999998     0.35446661493495563      22.750603652627905
   160   1      2.4564190899999998       3.897704715065045      26.302612937372086
   161   1      3.6846286349999997      8.1498760450650458      1.7277965426279107
   162   1      3.6846286349999997      4.6066379449349562      5.2798058273720887
   163   1      3.6846286349999997      6.7327236099349559      1.7277965426279107
   164   1      3.6846286349999997      6.0237903800650443      5.2798058273720887
   165   1      2.4564190899999998      6.0237903800650443      1.7277965426279107
   166   1      2.4564190899999998      6.7327236099349559      5.2798058273720887
   167   1      2.4564190899999998      4.6066379449349562      1.7277965426279107
   168   1      2.4564190899999998      8.1498760450650458      5.2798058273720887
   169   1      3.6846286349999997      8.1498760450650458      8.7353989126279092
   170   1      3.6846286349999997      4.6066379449349562      12.287408197372088
   171   1      3.6846286349999997      6.7327236099349559      8.7353989126279092
   172   1      3.6846286349999997      6.0237903800650443      12.287408197372088
   173   1      2.4564190899999998      6.0237903800650443      8.7353989126279092
   174   1      2.4564190899999998      6.7327236099349559      12.287408197372088
   175   1      2.4564190899999998      4.6066379449349562      8.7353989126279092
   176   1      2.4564190899999998      8.1498760450650458      12.287408197372088
   177   1      3.6846286349999997      8.1498760450650458      15.743001282627908
   178   1      3.6846286349999997      4.6066379449349562      19.295010567372085
   179   1      3.6846286349999997      6.7327236099349559      15.743001282627908
   180   1      3.6846286349999997      6.0237903800650443      19.295010567372085
   181   1      2.4564190899999998      6.0237903800650443      15.743001282627908
   182   1      2.4564190899999998      6.7327236099349559      19.295010567372085
   183   1      2.4564190899999998      4.6066379449349562      15.743001282627908
   184   1      2.4564190899999998      8.1498760450650458      19.295010567372085
   185   1      3.6846286349999997      8.1498760450650458      22.750603652627905
   186   1      3.6846286349999997      4.6066379449349562      26.302612937372086
   187   1      3.6846286349999997      6.7327236099349559      22.750603652627905
   188   1      3.6846286349999997      6.0237903800650443      26.302612937372086
   189   1      2.4564190899999998      6.0237903800650443      22.750603652627905
   190   1      2.4564190899999998      6.7327236099349559      26.302612937372086
   191   1      2.4564190899999998      4.6066379449349562      22.750603652627905
   192   1      2.4564190899999998      8.1498760450650458      26.302612937372086
   193   1      3.6846286349999997      12.402047375065045      1.7277965426279107
   194   1      3.6846286349999997      8.8588092749349556      5.2798058273720887
   195   1      3.6846286349999997      10.984894939934957      1.7277965426279107
   196   1      3.6846286349999997      10.275961710065046      5.2798058273720887
   197   1      2.4564190899999998      10.275961710065046      1.7277965426279107
   198   1      2.4564190899999998      10.984894939934957      5.2798058273720887
   199   1      2.4564190899999998      8.8588092749349556      1.7277965426279107
   200   1      2.4564190899999998      12.402047375065045      5.2798058273720887
   201   1      3.6846286349999997      12.402047375065045      8.7353989126279092
   202   1      3.6846286349999997      8.8588092749349556      12.287408197372088
   203   1      3.6846286349999997      10.984894939934957      8.7353989126279092
   204   1      3.6846286349999997      10.275961710065046      12.287408197372088
   205   1      2.4564190899999998      10.275961710065046      8.7353989126279092
   206   1      2.4564190899999998      10.984894939934957      12.287408197372088
   207   1      2.4564190899999998      8.8588092749349556      8.7353989126279092
   208   1      2.4564190899999998      12.402047375065045      12.287408197372088
   209   1      3.6846286349999997      12.402047375065045      15.743001282627908
   210   1      3.6846286349999997      8.8588092749349556      19.295010567372085
   211   1      3.6846286349999997      10.984894939934957      15.743001282627908
   212   1      3.6846286349999997      10.275961710065046      19.295010567372085
   213   1      2.4564190899999998      10.275961710065046      15.743001282627908
   214   1      2.4564190899999998      10.984894939934957      19.295010567372085
   215   1      2.4564190899999998      8.8588092749349556      15.743001282627908
   216   1      2.4564190899999998      12.402047375065045      19.295010567372085
   217   1      3.6846286349999997      12.402047375065045      22.750603652627905
   218   1      3.6846286349999997      8.8588092749349556      26.302612937372086
   219   1      3.6846286349999997      10.984894939934957      22.750603652627905
   220   1      3.6846286349999997      10.275961710065046      26.302612937372086
   221   1      2.4564190899999998      10.275961710065046      22.750603652627905
   222   1      2.4564190899999998      10.984894939934957      26.302612937372086
   223   1      2.4564190899999998      8.8588092749349556      22.750603652627905
   224   1      2.4564190899999998      12.402047375065045      26.302612937372086
   225   1      3.6846286349999997      16.654218705065048      1.7277965426279107
   226   1      3.6846286349999997      13.110980604934957      5.2798058273720887
   227   1      3.6846286349999997      15.237066269934957      1.7277965426279107
   228   1      3.6846286349999997      14.528133040065047      5.2798058273720887
   229   1      2.4564190899999998      14.528133040065047      1.7277965426279107
   230   1      2.4564190899999998      15.237066269934957      5.2798058273720887
   231   1      2.4564190899999998      13.110980604934957      1.7277965426279107
   232   1      2.4564190899999998      16.654218705065048      5.2798058273720887
   233   1      3.6846286349999997      16.654218705065048      8.7353989126279092
   234   1      3.6846286349999997      13.110980604934957      12.287408197372088
   235   1      3.6846286349999997      15.237066269934957      8.7353989126279092
   236   1      3.6846286349999997      14.528133040065047      12.287408197372088
   237   1      2.4564190899999998      14.528133040065047      8.7353989126279092
   238   1      2.4564190899999998      15.237066269934957      12.287408197372088
   239   1      2.4564190899999998      13.110980604934957      8.7353989126279092
   240   1      2.4564190899999998      16.654218705065048      12.287408197372088
   241   1      3.6846286349999997      16.654218705065048      15.743001282627908
   242   1      3.6846286349999997      13.110980604934957      19.295010567372085
   243   1      3.6846286349999997      15.237066269934957      15.743001282627908
   244   1      3.6846286349999997      14.528133040065047      19.295010567372085
   245   1      2.4564190899999998      14.528133040065047      15.743001282627908
   246   1      2.4564190899999998      15.237066269934957      19.295010567372085
   247   1      2.4564190899999998      13.110980604934957      15.743001282627908
   248   1      2.4564190899999998      16.654218705065048      19.295010567372085
   249   1      3.6846286349999997      16.654218705065048      22.750603652627905
   250   1      3.6846286349999997      13.110980604934957      26.302612937372086
   251   1      3.6846286349999997      15.237066269934957      22.750603652627905
   252   1      3.6846286349999997      14.528133040065047      26.302612937372086
   253   1      2.4564190899999998      14.528133040065047      22.750603652627905
   254   1      2.4564190899999998      15.237066269934957      26.302612937372086
   255   1      2.4564190899999998      13.110980604934957      22.750603652627905
   256   1      2.4564190899999998      16.654218705065048      26.302612937372086
   257   1             6.141047725       3.897704715065045      1.7277965426279107
   258   1             6.141047725     0.35446661493495563      5.2798058273720887
   259   1             6.141047725      2.4805522799349555      1.7277965426279107
   260   1             6.141047725      1.7716190500650442      5.2798058273720887
   261   1      4.9128381799999996      1.7716190500650442      1.7277965426279107
   262   1      4.9128381799999996      2.4805522799349555      5.2798058273720887
   263   1      4.9128381799999996     0.35446661493495563      1.7277965426279107
   264   1      4.9128381799999996       3.897704715065045      5.2798058273720887
   265   1             6.141047725       3.897704715065045      8.7353989126279092
   266   1             6.141047725     0.35446661493495563      12.287408197372088
   267   1             6.141047725      2.4805522799349555      8.7353989126279092
   268   1             6.141047725      1.7716190500650442      12.287408197372088
   269   1      4.9128381799999996      1.7716190500650442      8.7353989126279092
   270   1      4.9128381799999996      2.4805522799349555      12.287408197372088
   271   1      4.9128381799999996     0.35446661493495563      8.7353989126279092
   272   1      4.9128381799999996       3.897704715065045      12.287408197372088
   273   1             6.141047725       3.897704715065045      15.743001282627908
   274   1             6.141047725     0.35446661493495563      19.295010567372085
   275   1             6.141047725      2.4805522799349555      15.743001282627908
   276   1             6.141047725      1.7716190500650442      19.295010567372085
   277   1      4.9128381799999996      1.7716190500650442      15.743001282627908
   278   1      4.9128381799999996      2.4805522799349555      19.295010567372085
   279   1      4.9128381799999996     0.35446661493495563      15.743001282627908
   280   1      4.9128381799999996       3.897704715065045      19.295010567372085
   281   1             6.141047725       3.897704715065045      22.750603652627905
   282   1             6.141047725     0.35446661493495563      26.302612937372086
   283   1             6.141047725      2.4805522799349555      22.750603652627905
   284   1             6.141047725      1.7716190500650442      26.302612937372086
   285   1      4.9128381799999996      1.7716190500650442      22.750603652627905
   286   1      4.9128381799999996      2.4805522799349555      26.302612937372086
   287   1      4.9128381799999996     0.35446661493495563      22.750603652627905
   288   1      4.9128381799999996       3.897704715065045      26.302612937372086
   289   1             6.141047725      8.1498760450650458      1.7277965426279107
   290   1             6.141047725      4.6066379449349562      5.2798058273720887
   291   1             6.141047725      6.7327236099349559      1.7277965426279107
   292   1             6.141047725      6.0237903800650443      5.2798058273720887
   293   1      4.9128381799999996      6.0237903800650443      1.7277965426279107
   294   1      4.9128381799999996      6.7327236099349559      5.2798058273720887
   295   1      4.9128381799999996      4.6066379449349562      1.7277965426279107
   296   1      4.9128381799999996      8.1498760450650458      5.2798058273720887
   297   1             6.141047725      8.1498760450650458      8.7353989126279092
   298   1             6.141047725      4.6066379449349562      12.287408197372088
   299   1             6.141047725      6.7327236099349559      8.7353989126279092
   300   1             6.141047725      6.0237903800650443      12.287408197372088
   301   1      4.9128381799999996      6.0237903800650443      8.7353989126279092
   302   1      4.9128381799999996      6.7327236099349559      12.287408197372088
   303   1      4.9128381799999996      4.6066379449349562      8.7353989126279092
   304   1      4.9128381799999996      8.1498760450650458      12.287408197372088
   305   1             6.141047725      8.1498760450650458      15.743001282627908
   306   1             6.141047725      4.6066379449349562      19.295010567372085
   307   1             6.141047725      6.7327236099349559      15.743001282627908
   308   1             6.141047725      6.0237903800650443      19.295010567372085
   309   1      4.9128381799999996      6.0237903800650443      15.743001282627908
   310   1      4.9128381799999996      6.7327236099349559      19.295010567372085
   311   1      4.9128381799999996      4.6066379449349562      15.743001282627908
   312   1      4.9128381799999996      8.1498760450650458      19.295010567372085
   313   1             6.141047725      8.1498760450650458      22.750603652627905
   314   1             6.141047725      4.6066379449349562      26.302612937372086
   315   1             6.141047725      6.7327236099349559      22.750603652627905
   316   1             6.141047725      6.0237903800650443      26.302612937372086
   317   1      4.9128381799999996      6.0237903800650443      22.750603652627905
   318   1      4.9128381799999996      6.7327236099349559      26.302612937372086
   319   1      4.9128381799999996      4.6066379449349562      22.750603652627905
   320   1      4.9128381799999996      8.1498760450650458      26.302612937372086
   321   1             6.141047725      12.402047375065045      1.7277965426279107
   322   1             6.141047725      8.8588092749349556      5.2798058273720887
   323   1             6.141047725      10.984894939934957      1.7277965426279107
   324   1             6.141047725      10.275961710065046      5.2798058273720887
   325   1      4.9128381799999996      10.275961710065046      1.7277965426279107
   326   1      4.9128381799999996      10.984894939934957      5.2798058273720887
   327   1      4.9128381799999996      8.8588092749349556      1.7277965426279107
   328   1      4.9128381799999996      12.402047375065045      5.2798058273720887
   329   1             6.141047725      12.402047375065045      8.7353989126279092
   330   1             6.141047725      8.8588092749349556      12.287408197372088
   331   1             6.141047725      10.984894939934957      8.7353989126279092
   332   1             6.141047725      10.275961710065046      12.287408197372088
   333   1      4.9128381799999996      10.275961710065046      8.7353989126279092
   334   1      4.9128381799999996      10.984894939934957      12.287408197372088
   335   1      4.9128381799999996      8.8588092749349556      8.7353989126279092
   336   1      4.9128381799999996      12.402047375065045      12.287408197372088
   337   1             6.141047725      12.402047375065045      15.743001282627908
   338   1             6.141047725      8.8588092749349556      19.295010567372085
   339   1             6.141047725      10.984894939934957      15.743001282627908
   340   1             6.141047725      10.275961710065046      19.295010567372085
   341   1      4.9128381799999996      10.275961710065046      15.743001282627908
   342   1      4.9128381799999996      10.984894939934957      19.295010567372085
   343   1      4.9128381799999996      8.8588092749349556      15.743001282627908
   344   1      4.9128381799999996      12.402047375065045      19.295010567372085
   345   1             6.141047725      12.402047375065045      22.750603652627905
   346   1             6.141047725      8.8588092749349556      26.302612937372086
   347   1             6.141047725      10.984894939934957      22.750603652627905
   348   1             6.141047725      10.275961710065046      26.302612937372086
   349   1      4.9128381799999996      10.275961710065046      22.750603652627905
   350   1      4.9128381799999996      10.984894939934957      26.302612937372086
   351   1      4.9128381799999996      8.8588092749349556      22.750603652627905
   352   1      4.9128381799999996      12.402047375065045      26.302612937372086
   353   1             6.141047725      16.654218705065048      1.7277965426279107
   354   1             6.141047725      13.110980604934957      5.2798058273720887
   355   1             6.141047725      15.237066269934957      1.7277965426279107
   356   1             6.141047725      14.528133040065047      5.2798058273720887
   357   1      4.9128381799999996      14.528133040065047      1.7277965426279107
   358   1      4.9128381799999996      15.237066269934957      5.2798058273720887
   359   1      4.9128381799999996      13.110980604934957      1.7277965426279107
   360   1      4.9128381799999996      16.654218705065048      5.2798058273720887
   361   1             6.141047725      16.654218705065048      8.7353989126279092
   362   1             6.141047725      13.110980604934957      12.287408197372088
   363   1             6.141047725      15.237066269934957      8.7353989126279092
   364   1             6.141047725      14.528133040065047      12.287408197372088
   365   1      4.9128381799999996      14.528133040065047      8.7353989126279092
   366   1      4.9128381799999996      15.237066269934957      12.287408197372088
   367   1      4.9128381799999996      13.110980604934957      8.7353989126279092
   368   1      4.9128381799999996      16.654218705065048      12.287408197372088
   369   1             6.141047725      16.654218705065048      15.743001282627908
   370   1             6.141047725      13.110980604934957      19.295010567372085
   371   1             6.141047725      15.237066269934957      15.743001282627908
   372   1             6.141047725      14.528133040065047      19.295010567372085
   373   1      4.9128381799999996      14.528133040065047      15.743001282627908
   374   1      4.9128381799999996      15.237066269934957      19.295010567372085
   375   1      4.9128381799999996      13.110980604934957      15.743001282627908
   376   1      4.9128381799999996      16.654218705065048      19.295010567372085
   377   1             6.141047725      16.654218705065048      22.750603652627905
   378   1             6.141047725      13.110980604934957      26.302612937372086
   379   1             6.141047725      15.237066269934957      22.750603652627905
   380   1             6.141047725      14.528133040065047      26.302612937372086
   381   1      4.9128381799999996      14.528133040065047      22.750603652627905
   382   1      4.9128381799999996      15.237066269934957      26.302612937372086
   383   1      4.9128381799999996      13.110980604934957      22.750603652627905
   384   1      4.9128381799999996      16.654218705065048      26.302612937372086
   385   1      8.5974668149999989       3.897704715065045      1.7277965426279107
   386   1      8.5974668149999989     0.35446661493495563      5.2798058273720887
   387   1      8.5974668149999989      2.4805522799349555      1.7277965426279107
   388   1      8.5974668149999989      1.7716190500650442      5.2798058273720887
   389   1      7.3692572699999994      1.7716190500650442      1.7277965426279107
   390   1      7.3692572699999994      2.4805522799349555      5.2798058273720887
   391   1      7.3692572699999994     0.35446661493495563      1.7277965426279107
   392   1      7.3692572699999994       3.897704715065045      5.2798058273720887
   393   1      8.5974668149999989       3.897704715065045      8.7353989126279092
   394   1      8.5974668149999989     0.35446661493495563      12.287408197372088
   395   1      8.5974668149999989      2.4805522799349555      8.7353989126279092
   396   1      8.5974668149999989      1.7716190500650442      12.287408197372088
   397   1      7.3692572699999994      1.7716190500650442      8.7353989126279092
   398   1      7.3692572699999994      2.4805522799349555      12.287408197372088
   399   1      7.3692572699999994     0.35446661493495563      8.7353989126279092
   400   1      7.3692572699999994       3.897704715065045      12.287408197372088
   401   1      8.5974668149999989       3.897704715065045      15.743001282627908
   402   1      8.5974668149999989     0.35446661493495563      19.295010567372085
   403   1      8.5974668149999989      2.4805522799349555      15.743001282627908
   404   1      8.5974668149999989      1.7716190500650442      19.295010567372085
   405   1      7.3692572699999994      1.7716190500650442      15.743001282627908
   406   1      7.3692572699999994      2.4805522799349555      19.295010567372085
   407   1      7.3692572699999994     0.35446661493495563      15.743001282627908
   408   1      7.3692572699999994       3.897704715065045      19.295010567372085
   409   1      8.5974668149999989       3.897704715065045      22.750603652627905
   410   1      8.5974668149999989     0.35446661493495563      26.302612937372086
   411   1      8.5974668149999989      2.4805522799349555      22.750603652627905
   412   1      8.5974668149999989      1.7716190500650442      26.302612937372086
   413   1      7.3692572699999994      1.7716190500650442      22.750603652627905
   414   1      7.3692572699999994      2.4805522799349555      26.302612937372086
   415   1      7.3692572699999994     0.35446661493495563      22.750603652627905
   416   1      7.3692572699999994       3.897704715065045      26.302612937372086
   417   1      8.5974668149999989      8.1498760450650458      1.7277965426279107
   418   1      8.5974668149999989      4.6066379449349562      5.2798058273720887
   419   1      8.5974668149999989      6.7327236099349559      1.7277965426279107
   420   1      8.5974668149999989      6.0237903800650443      5.2798058273720887
   421   1      7.3692572699999994      6.0237903800650443      1.7277965426279107
   422   1      7.3692572699999994      6.7327236099349559      5.2798058273720887
   423   1      7.3692572699999994      4.6066379449349562      1.7277965426279107
   424   1      7.3692572699999994      8.1498760450650458      5.2798058273720887
   425   1      8.5974668149999989      8.1498760450650458      8.7353989126279092
   426   1      8.5974668149999989      4.6066379449349562      12.287408197372088
   427   1      8.5974668149999989      6.7327236099349559      8.7353989126279092
   428   1      8.5974668149999989      6.0237903800650443      12.287408197372088
   429   1      7.3692572699999994      6.0237903800650443      8.7353989126279092
   430   1      7.3692572699999994      6.7327236099349559      12.287408197372088
   431   1      7.3692572699999994      4.6066379449349562      8.7353989126279092
   432   1      7.3692572699999994      8.1498760450650458      12.287408197372088
   433   1      8.5974668149999989      8.1498760450650458      15.743001282627908
   434   1      8.5974668149999989      4.6066379449349562      19.295010567372085
   435   1      8.5974668149999989      6.7327236099349559      15.743001282627908
   436   1      8.5974668149999989      6.0237903800650443      19.295010567372085
   437   1      7.3692572699999994      6.0237903800650443      15.743001282627908
   438   1      7.3692572699999994      6.7327236099349559      19.295010567372085
   439   1      7.3692572699999994      4.6066379449349562      15.743001282627908
   440   1      7.3692572699999994      8.1498760450650458      19.295010567372085
   441   1      8.5974668149999989      8.1498760450650458      22.750603652627905
   442   1      8.5974668149999989      4.6066379449349562      26.302612937372086
   443   1      8.5974668149999989      6.7327236099349559      22.750603652627905
   444   1      8.5974668149999989      6.0237903800650443      26.302612937372086
   445   1      7.3692572699999994      6.0237903800650443      22.750603652627905
   446   1      7.3692572699999994      6.7327236099349559      26.302612937372086
   447   1      7.3692572699999994      4.6066379449349562      22.750603652627905
   448   1      7.3692572699999994      8.1498760450650458      26.302612937372086
   449   1      8.5974668149999989      12.402047375065045      1.7277965426279107
   450   1      8.5974668149999989      8.8588092749349556      5.2798058273720887
   451   1      8.5974668149999989      10.984894939934957      1.7277965426279107
   452   1      8.5974668149999989      10.275961710065046      5.2798058273720887
   453   1      7.3692572699999994      10.275961710065046      1.7277965426279107
   454   1      7.3692572699999994      10.984894939934957      5.2798058273720887
   455   1      7.3692572699999994      8.8588092749349556      1.7277965426279107
   456   1      7.3692572699999994      12.402047375065045      5.2798058273720887
   457   1      8.5974668149999989      12.402047375065045      8.7353989126279092
   458   1      8.5974668149999989      8.8588092749349556      12.287408197372088
   459   1      8.5974668149999989      10.984894939934957      8.7353989126279092
   460   1      8.5974668149999989      10.275961710065046      12.287408197372088
   461   1      7.3692572699999994      10.275961710065046      8.7353989126279092
   462   1      7.3692572699999994      10.984894939934957      12.287408197372088
   463   1      7.3692572699999994      8.8588092749349556      8.7353989126279092
   464   1      7.3692572699999994      12.402047375065045      12.287408197372088
   465   1      8.5974668149999989      12.402047375065045      15.743001282627908
   466   1      8.5974668149999989      8.8588092749349556      19.295010567372085
   467   1      8.5974668149999989      10.984894939934957      15.743001282627908
   468   1      8.5974668149999989      10.275961710065046      19.295010567372085
   469   1      7.3692572699999994      10.275961710065046      15.743001282627908
   470   1      7.3692572699999994      10.984894939934957      19.295010567372085
   471   1      7.3692572699999994      8.8588092749349556      15.743001282627908
   472   1      7.3692572699999994      12.402047375065045      19.295010567372085
   473   1      8.5974668149999989      12.402047375065045      22.750603652627905
   474   1      8.5974668149999989      8.8588092749349556      26.302612937372086
   475   1      8.5974668149999989      10.984894939934957      22.750603652627905
   476   1      8.5974668149999989      10.275961710065046      26.302612937372086
   477   1      7.3692572699999994      10.275961710065046      22.750603652627905
   478   1      7.3692572699999994      10.984894939934957      26.302612937372086
   479   1      7.3692572699999994      8.8588092749349556      22.750603652627905
   480   1      7.3692572699999994      12.402047375065045      26.302612937372086
   481   1      8.5974668149999989      16.654218705065048      1.7277965426279107
   482   1      8.5974668149999989      13.110980604934957      5.2798058273720887
   483   1      8.5974668149999989      15.237066269934957      1.7277965426279107
   484   1      8.5974668149999989      14.528133040065047      5.2798058273720887
   485   1      7.3692572699999994      14.528133040065047      1.7277965426279107
   486   1      7.3692572699999994      15.237066269934957      5.2798058273720887
   487   1      7.3692572699999994      13.110980604934957      1.7277965426279107
   488   1      7.3692572699999994      16.654218705065048      5.2798058273720887
   489   1      8.5974668149999989      16.654218705065048      8.7353989126279092
   490   1      8.5974668149999989      13.110980604934957      12.287408197372088
   491   1      8.5974668149999989      15.237066269934957      8.7353989126279092
   492   1      8.5974668149999989      14.528133040065047      12.287408197372088
   493   1      7.3692572699999994      14.528133040065047      8.7353989126279092
   494   1      7.3692572699999994      15.237066269934957      12.287408197372088
   495   1      7.3692572699999994      13.110980604934957      8.7353989126279092
   496   1      7.3692572699999994      16.654218705065048      12.287408197372088
   497   1      8.5974668149999989      16.654218705065048      15.743001282627908
   498   1      8.5974668149999989      13.110980604934957      19.295010567372085
   499   1      8.5974668149999989      15.237066269934957      15.743001282627908
   500   1      8.5974668149999989      14.528133040065047      19.295010567372085
   501   1      7.3692572699999994      14.528133040065047      15.743001282627908
   502   1      7.3692572699999994      15.237066269934957      19.295010567372085
   503   1      7.3692572699999994      13.110980604934957      15.743001282627908
   504   1      7.3692572699999994      16.654218705065048      19.295010567372085
   505   1      8.5974668149999989      16.654218705065048      22.750603652627905
   506   1      8.5974668149999989      13.110980604934957      26.302612937372086
   507   1      8.5974668149999989      15.237066269934957      22.750603652627905
   508   1      8.5974668149999989      14.528133040065047      26.302612937372086
   509   1      7.3692572699999994      14.528133040065047      22.750603652627905
   510   1      7.3692572699999994      15.237066269934957      26.302612937372086
   511   1      7.3692572699999994      13.110980604934957      22.750603652627905
   512   1      7.3692572699999994      16.654218705065048      26.302612937372086
