LAMMPS data file via write_data, version 22 Jul 2025, timestep = 200001, units = metal

512 atoms
1 atom types

0.08004761429171481 17.01384766327007 xlo xhi
0.07649376067998581 9.792671279319553 ylo yhi
7.3251458827264475 23.88714611727415 zlo zhi

Masses

1 12.01099999691024

Atoms # atomic

39 1 1.753665181697287 2.692780100306208 8.230429035558869 0 0 0
1 1 0.3679206218590035 0.24268064332456635 8.384124948068422 0 0 0
5 1 2.394410351957687 1.550636624433286 8.347789024629233 0 0 0
3 1 3.756436930065045 1.4877193425178814 8.40819356632373 0 0 0
161 1 4.495498489309341 2.6909995412335594 8.42862692489243 0 0 0
167 1 6.018563911617961 2.619076215962398 8.3094778251508 0 0 0
133 1 6.680293278283775 1.5533504786089278 8.392725189081082 0 0 0
131 1 8.17227280927346 1.4600266658566097 8.436712829817205 0 0 0
289 1 8.88145267878309 2.771838937571678 8.389561655207666 0 0 0
295 1 10.28632471334017 2.757589162697982 8.165699214793312 0 0 0
261 1 10.952786903293534 1.4982518518472983 8.512558265658328 0 0 0
259 1 12.470461344055666 1.4882767778192734 8.416711664659463 0 0 0
385 1 13.209101977460113 0.2746768425992041 8.458345004694042 0 0 0
417 1 13.188362659197015 2.7163350710241074 8.363302614321071 0 0 0
423 1 14.567481779747 2.688916064622746 8.217638012871014 0 0 0
387 1 16.610073612663335 1.424355936369667 8.331176503853374 0 0 0
389 1 15.306136802022705 1.5308652663467803 8.56285589053472 0 0 0
33 1 0.340953862876626 2.668877364060246 8.300800379419993 0 0 0
71 1 1.836162055176701 5.096233678989297 8.362906990804206 0 0 0
65 1 0.4807322071459897 5.1475233353670236 8.39206399798217 0 0 0
37 1 2.4236845927731796 3.9139372426627355 8.33478337133906 0 0 0
35 1 3.827355265697108 3.9116176450019653 8.37718019200469 0 0 0
199 1 6.05666369782354 5.10111037406526 8.415722493627722 0 0 0
193 1 4.59564177437074 5.096279317831212 8.531877414593211 0 0 0
165 1 6.724812722585248 3.804953685052429 8.043382599286879 0 0 0
163 1 8.055946907123957 3.9250592760472314 8.472097327858256 0 0 0
321 1 8.856824627817646 5.165278952371582 8.375621624797454 0 0 0
327 1 10.189856174162644 5.162173789446719 8.343901755517319 0 0 0
293 1 11.029913531914564 4.043064700207058 8.236005240264458 0 0 0
291 1 12.496615056356216 3.9505372726232695 8.273058176495951 0 0 0
455 1 14.628418013690062 5.085539460683197 8.582417778696456 0 0 0
449 1 13.124303355917684 5.056710348096505 8.412382565187109 0 0 0
421 1 15.249539069495693 3.8708284309456 8.519968595517206 0 0 0
419 1 16.50886159825663 3.9294968642198453 8.178246550206703 0 0 0
69 1 2.529003924385493 6.313739066098214 8.472557944527912 0 0 0
67 1 3.854357908136321 6.296417688661356 8.419247948974478 0 0 0
225 1 4.615963288641194 7.475979071923586 8.319306473821088 0 0 0
231 1 6.115060494644139 7.551742444178843 8.295116627673917 0 0 0
197 1 6.825560140877462 6.370514909502974 8.383457771709805 0 0 0
195 1 8.174033270113371 6.424432400203645 8.339882783314891 0 0 0
353 1 8.903990851600192 7.6037767039964015 8.266924810070003 0 0 0
359 1 10.15492699694197 7.589398800059138 8.36861507496307 0 0 0
325 1 10.938634747743118 6.411453183088629 8.669555638939954 0 0 0
323 1 12.465049384289655 6.255502757104244 8.359689455076385 0 0 0
487 1 14.560478487687325 7.478116530750187 8.383542115191371 0 0 0
451 1 16.746812152073222 6.316921591855891 8.508994733701103 0 0 0
453 1 15.329964134986685 6.307356853683929 8.408790633242305 0 0 0
97 1 0.40684537896267914 7.609478681824118 8.487046081389831 0 0 0
103 1 1.8104978594215912 7.534966088558629 8.39973598163746 0 0 0
7 1 1.8125873669890413 0.33123894444646235 8.326547263625882 0 0 0
101 1 2.5976571356511235 8.75470043937217 8.487180061726193 0 0 0
99 1 3.8663503343735517 8.734471555103337 8.350801712862593 0 0 0
129 1 4.4916395837580465 0.175901829402182 8.444719336784848 0 0 0
135 1 5.930871251266563 0.3174946272381566 8.343373317763522 0 0 0
229 1 6.726682526915025 8.818629487146861 8.269583250577833 0 0 0
227 1 8.170269493626268 8.866245080427051 8.339772391441626 0 0 0
257 1 8.900045560440416 0.27737335395409957 8.431609111890365 0 0 0
263 1 10.270272247909686 0.3557439571260286 8.31147427091035 0 0 0
357 1 10.912890903542317 8.733516658425739 8.568285898849684 0 0 0
355 1 12.385872561635082 8.660362854840573 8.339845604412606 0 0 0
481 1 13.068995000433006 7.469402937571664 8.568025679109141 0 0 0
391 1 14.53895492847214 0.27012170038642047 8.431387899303989 0 0 0
483 1 16.522569653548047 8.800335126535165 8.527166892942342 0 0 0
485 1 15.223822256879966 8.685897359666633 8.346618319250707 0 0 0
34 1 1.3180855103312437 1.7385703777780461 10.359968018702828 0 0 0
4 1 2.028849649554314 0.5085103874713719 10.67623030017955 0 0 0
6 1 3.4916792906851737 0.5928866709245623 10.61422440791875 0 0 0
40 1 4.139673717749485 1.7989590659710493 10.571479874621701 0 0 0
162 1 5.466688758260222 1.645830528876799 10.51677572760217 0 0 0
132 1 6.241083700460391 0.5070153517741298 10.511075358506348 0 0 0
134 1 7.586722695888629 0.557451901135106 10.523945048709693 0 0 0
168 1 8.392245976945913 1.7449705894128325 10.619145368583059 0 0 0
290 1 9.721456739139187 1.7596346461367123 10.353030986601512 0 0 0
260 1 10.40931680034876 0.47668704598068085 10.449062851760505 0 0 0
296 1 12.596368872093294 1.788452711888824 10.550714635754492 0 0 0
262 1 11.772271576068283 0.5616616603262263 10.33493468220756 0 0 0
418 1 13.994103708376333 1.75647380937257 10.478846220367195 0 0 0
388 1 14.668972396382184 0.44425230173958313 10.507928461986163 0 0 0
424 1 16.819906460217393 1.8253199511269103 10.449896055205663 0 0 0
390 1 16.066245941967697 0.6008266443587188 10.433027107553134 0 0 0
66 1 1.2787848608871837 4.184946090869253 10.242822884608099 0 0 0
36 1 2.0867294810116057 2.9682659000438605 10.273916382420877 0 0 0
456 1 16.951972680131895 4.175879551691306 10.43711387496317 0 0 0
38 1 3.4368421593770755 3.001309696990782 10.249525057370573 0 0 0
72 1 4.119715597766165 4.129964175757687 10.554154584885655 0 0 0
194 1 5.525203515857231 4.114957692481925 10.346185952102525 0 0 0
164 1 6.3005973342948645 2.8578638760471793 10.352040272655833 0 0 0
166 1 7.711848942992952 2.9153238136793918 10.37102154901218 0 0 0
200 1 8.391351765854349 4.110070645640424 10.543422667141636 0 0 0
322 1 9.705763607774756 4.094137563516946 10.256146239831624 0 0 0
292 1 10.488272949615268 2.8899368443629765 10.335336785132052 0 0 0
294 1 11.928981269320442 2.931520406339234 10.285084736141583 0 0 0
328 1 12.640681223524743 4.190074913986614 10.380192220331242 0 0 0
450 1 14.109928301271259 4.155267455977348 10.529081328809033 0 0 0
420 1 14.79496319863674 2.997397895300831 10.486188603706395 0 0 0
422 1 16.21785377921884 2.985667079845784 10.266043185794848 0 0 0
98 1 1.327583040018623 6.535453512763103 10.433008663238853 0 0 0
68 1 2.0050740474787347 5.362328118648474 10.452372420534713 0 0 0
70 1 3.4617052340564984 5.316643214635082 10.561462218161072 0 0 0
104 1 4.065574518410802 6.617352526942151 10.56558673566343 0 0 0
226 1 5.490278213657761 6.60158943283429 10.333212829102632 0 0 0
196 1 6.209563983940637 5.298487740874777 10.527372256120094 0 0 0
198 1 7.621929233128564 5.279145785748948 10.472689909687261 0 0 0
232 1 8.309749570358711 6.4609969525823105 10.445350379593988 0 0 0
354 1 9.785817375356325 6.502466300238744 10.471403088834617 0 0 0
324 1 10.387612502618653 5.36883281628627 10.389246174141624 0 0 0
326 1 11.865444805586735 5.381210065330644 10.295926221704388 0 0 0
360 1 12.476931516831973 6.592905436761831 10.442608689929399 0 0 0
482 1 13.98854246261036 6.545962418602035 10.472894875371443 0 0 0
452 1 14.824002952904252 5.380006328859139 10.742464284779096 0 0 0
488 1 16.879499179064585 6.675679551473265 10.650298874296134 0 0 0
454 1 16.135518933678686 5.388082250213149 10.534589236793675 0 0 0
2 1 1.3186393951909174 8.99410395761353 10.497750900037335 0 -1 0
100 1 2.063429809248916 7.793622943550106 10.535201770560349 0 0 0
102 1 3.3553766825423557 7.811397519644561 10.280508143826047 0 0 0
8 1 4.165027736786106 9.045391591096394 10.41061703307821 0 -1 0
130 1 5.534029613351193 9.002243288706145 10.371497476831443 0 -1 0
228 1 6.175789271901619 7.852422154712843 10.394408864641466 0 0 0
230 1 7.57423817238366 7.728286633533578 10.489433129574879 0 0 0
136 1 8.297537474179236 9.057893782299935 10.413237457085632 0 -1 0
258 1 9.674028696071066 9.03017329058318 10.439581449277828 0 -1 0
356 1 10.469462967652124 7.7910587564541185 10.59191225725323 0 0 0
358 1 11.788342895778237 7.800529324633466 10.522619305617887 0 0 0
264 1 12.509047801770572 8.99327348773227 10.668207342327134 0 -1 0
386 1 13.999339664526058 8.961505355989742 10.164149076132672 0 -1 0
484 1 14.744343273124237 7.716062262866891 10.531665203596047 0 0 0
392 1 16.805148898559157 8.948113341464454 10.631378873490508 0 -1 0
486 1 16.173644647052853 7.816055644514604 10.30588103011509 0 0 0
47 1 0.6936932669397317 0.9329237465886884 12.4187581924895 0 0 0
45 1 1.4108670222424506 2.1250508491832774 12.428778109267991 0 0 0
14 1 0.1777772073811697 1.8594331035963922 14.398020987815402 0 0 0
43 1 2.884474423112819 1.998091821013561 12.25825606265511 0 0 0
169 1 3.576742362254219 0.8645656493851183 12.668383978269437 0 0 0
138 1 2.3676387055345116 0.7192925128025506 14.433961154289923 0 0 0
140 1 3.0620438425114185 1.848946475436803 14.434831181628905 0 0 0
175 1 4.970159964905964 0.8812100358108138 12.694890747419073 0 0 0
173 1 5.594662879020904 2.107105968756863 12.663906474165382 0 0 0
142 1 4.440020302659473 1.9421691481110366 14.692340779484955 0 0 0
171 1 7.038967839734579 2.2241501632295613 12.436816279241292 0 0 0
297 1 7.778946291188934 1.014056079198475 12.59472505502977 0 0 0
303 1 9.12412286829178 0.9555821115967209 12.503663092457195 0 0 0
301 1 9.901361240601632 2.162594056959395 12.412078441202999 0 0 0
299 1 11.208761576766157 2.2653285048569454 12.433101018670953 0 0 0
425 1 11.906154063013949 1.0213616357214876 12.449843215826418 0 0 0
431 1 13.424501757395134 1.0002574915824396 12.364047166910524 0 0 0
429 1 14.103661447284775 2.153077864883496 12.528500584960637 0 0 0
398 1 12.981682691444181 1.882801719813405 14.55998965239932 0 0 0
41 1 16.06499442920027 0.9259504483765624 12.581822618494623 -1 0 0
427 1 15.474252389694335 2.105246647950329 12.313896987700991 0 0 0
10 1 15.119545681401187 0.5339552659687103 14.54822117178011 -1 0 0
79 1 0.66433886524558 3.358033626585041 12.466304402367967 0 0 0
77 1 1.429232714637841 4.518729705112187 12.339554957857217 0 0 0
75 1 2.8848001464344897 4.465685659986845 12.409233785893369 0 0 0
201 1 3.6030156235030124 3.218806647402613 12.335062661540462 0 0 0
172 1 3.1024434822317275 4.289380380598229 14.549002214432262 0 0 0
207 1 4.948539295361976 3.2786848223670986 12.325089460945298 0 0 0
205 1 5.59530522664736 4.572650606138507 12.476806575262799 0 0 0
174 1 4.430613160141997 4.312850694456129 14.56981767279901 0 0 0
203 1 6.968000951608735 4.565847315253807 12.586606967889725 0 0 0
329 1 7.741772946524183 3.3191981992343416 12.55439700380046 0 0 0
335 1 9.132046845692077 3.3456053826154535 12.48380474321285 0 0 0
333 1 9.783879060622223 4.551106228640291 12.307056750113864 0 0 0
331 1 11.228913047710183 4.6313608165379545 12.210125316953926 0 0 0
457 1 11.866266691303675 3.4537683719026586 12.352288564846152 0 0 0
463 1 13.27751299114793 3.3671797180575647 12.565426322557668 0 0 0
461 1 14.052023800314275 4.5857131755573795 12.615901428005518 0 0 0
430 1 13.03976657540603 4.310862319667395 14.596192803504973 0 0 0
73 1 16.189631033951194 3.2390793053769427 12.535594977843381 -1 0 0
459 1 15.49803520020659 4.456092480317756 12.530002428571443 0 0 0
42 1 15.132825846962053 3.052393681047014 14.353443014841135 -1 0 0
111 1 0.7085645491403706 5.7126561954724435 12.363487686049535 0 0 0
109 1 1.4651847037731074 6.875359604123427 12.517571340073559 0 0 0
80 1 1.1741338912309713 5.574633945536199 14.679063721599908 0 0 0
78 1 0.3543442324536708 6.868681138949417 14.549621748523938 0 0 0
107 1 2.896333570151384 6.917803958544585 12.713527799793384 0 0 0
233 1 3.6250697355219903 5.614076950988473 12.84959366068037 0 0 0
202 1 2.5214527799806983 5.551733124588162 14.624256947570355 0 0 0
239 1 4.89613842419131 5.744078570075617 12.27648589352098 0 0 0
237 1 5.574224097357172 6.878583796145019 12.432558800253283 0 0 0
235 1 6.931856623560519 6.913814259183477 12.77396885647598 0 0 0
361 1 7.697683040020588 5.729647324860948 12.71689327431961 0 0 0
367 1 9.14750536862214 5.721030285711769 12.661180096380392 0 0 0
365 1 9.87657315281956 7.000880563108642 12.680555911496036 0 0 0
363 1 11.202956969965818 6.955573311343557 12.559015319221793 0 0 0
489 1 11.889318967420609 5.746886795673405 12.643805342814073 0 0 0
495 1 13.345157197436434 5.751129791888367 12.460543905493452 0 0 0
493 1 14.00937373518332 6.988108293935885 12.567178917418873 0 0 0
105 1 16.160041322133843 5.708987991918696 12.7514085721452 -1 0 0
491 1 15.384736515022526 6.896985342690899 12.676392371942647 0 0 0
74 1 15.105997447107457 5.441588076229755 14.790695571296443 -1 0 0
76 1 15.834894736585628 6.696082597669112 14.727807580748124 -1 0 0
15 1 0.7007191663788174 8.054461082277328 12.453156448690752 0 -1 0
13 1 1.4715795262031304 9.412326464280264 12.604255428590916 0 -1 0
110 1 0.3734042253759236 9.24703770398686 14.442222062152062 0 0 0
11 1 2.837342727653332 9.443931914481187 12.448464412548294 0 -1 0
137 1 3.4979287880889576 8.193115102492445 12.38082311118829 0 -1 0
234 1 2.4488549003013294 7.979796783817078 14.316644093902026 0 0 0
143 1 4.919029874477039 8.117835524502219 12.368510093889025 0 -1 0
141 1 5.641140922838372 9.420821029506588 12.584815455426114 0 -1 0
238 1 4.425310470903178 9.271547612894313 14.583947081326887 0 0 0
139 1 7.01837198080882 9.516849248170963 12.492474810213531 0 -1 0
265 1 7.600655823106683 8.176997745440698 12.667379104433254 0 -1 0
271 1 9.128333641861234 8.198124511937655 12.51559279679211 0 -1 0
269 1 9.87908906876288 9.50914533388125 12.59325397669004 0 -1 0
267 1 11.19944325730356 9.579798836881391 12.405591895648506 0 -1 0
393 1 11.989063938386147 8.271032111201718 12.59255350426374 0 -1 0
399 1 13.318801407690252 8.313152165956334 12.539397878352354 0 -1 0
397 1 14.029628300072428 9.370616831420723 12.259254187852251 0 -1 0
9 1 16.24481930665139 8.093404269414068 12.769920884354491 -1 -1 0
395 1 15.433579329816288 9.382722704037665 12.43403383857931 0 -1 0
16 1 0.997638278886126 0.7464004596706629 14.725315079885323 0 0 0
17 1 0.6376353041116096 9.487885853185789 16.69568500451108 0 -1 0
49 1 0.5518116534980145 2.181525619362824 16.41838030556607 0 0 0
19 1 4.141162277235138 1.088449141866278 16.68098749804156 0 0 0
21 1 2.692122436971115 0.9193709295449826 16.551062066274632 0 0 0
144 1 5.218316979649079 0.6887137047879814 14.740932336639009 0 0 0
145 1 4.7907627963704105 9.491880627418997 16.673497370333003 0 -1 0
151 1 6.22268985775625 9.426926504164506 16.62125433558392 0 -1 0
266 1 6.641140232420527 0.596062306745951 14.506388777037959 0 0 0
268 1 7.281696857451643 1.7826159749693664 14.482447298545367 0 0 0
149 1 6.938437865303328 0.9553972755467919 16.6062040194478 0 0 0
270 1 8.74028212894633 1.8466370150200888 14.488778529284104 0 0 0
272 1 9.577735410319528 0.5653101431225811 14.547518938275672 0 0 0
279 1 10.441125430159936 9.415775041140947 16.59378846237604 0 -1 0
394 1 10.963698710704461 0.4498885649676256 14.470664852094416 0 0 0
396 1 11.590845278279339 1.8245585279429917 14.498735502122315 0 0 0
275 1 12.573572705401562 0.9293173671657312 16.79625807330528 0 0 0
277 1 11.148355581136416 0.978782925768428 16.439552793431393 0 0 0
400 1 13.639836030429596 0.5571878159304531 14.673719638037614 0 0 0
401 1 13.224658638790418 9.50434079180281 16.638985652817073 0 -1 0
12 1 15.84650215557365 1.8130646615019332 14.496979352769504 -1 0 0
405 1 15.489811964414585 1.015037346357447 16.569799505458917 0 0 0
403 1 16.897249385704736 1.0009060898367688 16.572203319557186 0 0 0
48 1 0.9231901647767553 3.1240916046002 14.58028423708464 0 0 0
46 1 0.3059400961724219 4.360795874569248 14.689885234454463 0 0 0
55 1 2.0404347398644527 2.132672830394193 16.32004929522925 0 0 0
87 1 2.0044825959053423 4.699507174721091 16.557590095205796 0 0 0
81 1 0.5815208699288009 4.608725435196195 16.714521717611035 0 0 0
170 1 2.260308356711027 3.0674486825557206 14.185108736485432 0 0 0
53 1 2.850489402811291 3.4502666195733926 16.447047126156143 0 0 0
51 1 4.290620252908984 3.484465750409542 16.660307708503247 0 0 0
176 1 5.144879252947992 3.104519256972313 14.603615649765043 0 0 0
177 1 4.827030772249401 2.200994975205413 16.78791686357774 0 0 0
183 1 6.243562045755345 2.1811251952301416 16.60972339341593 0 0 0
298 1 6.588059715360111 2.9722931273740367 14.527830442672187 0 0 0
300 1 7.387642630677347 4.316511362522638 14.716672107343076 0 0 0
179 1 8.29855140653089 3.3852446004004673 16.578026369535593 0 0 0
181 1 6.963428156526208 3.4536885780802056 16.5709148952658 0 0 0
302 1 8.854754640948395 4.28427008764861 14.531088615287263 0 0 0
304 1 9.358325160039783 3.0421687802956012 14.565124248774962 0 0 0
426 1 10.814264498275225 2.993776434616403 14.407595846169517 0 0 0
428 1 11.611712377598955 4.311687488820405 14.534402655483726 0 0 0
307 1 12.530243438599458 3.4424810405509105 16.638219516586133 0 0 0
432 1 13.722919811327788 3.1007924906309046 14.595463978908708 0 0 0
433 1 13.326793800602573 2.0219884211634715 16.639353444014105 0 0 0
439 1 14.729956816529356 2.100160265307284 16.495748386891393 0 0 0
471 1 14.647541135896349 4.551278029798428 16.83444334109888 0 0 0
44 1 15.840628482378024 4.285686259714748 14.698942685104445 -1 0 0
437 1 15.43375592111111 3.365205157588197 16.51578299417561 0 0 0
435 1 16.81040424594307 3.398808657383997 16.51425380426553 0 0 0
204 1 3.2555148261850317 6.783690165918781 14.7333768916359 0 0 0
85 1 2.7903431354971344 5.937127500708749 16.666974034596887 0 0 0
83 1 4.211882912985115 5.89341753377871 16.570405210462848 0 0 0
206 1 4.533292098117771 6.830526015875507 14.529545631407714 0 0 0
208 1 5.195746059238043 5.524947598606674 14.486822316100223 0 0 0
215 1 6.276671378476783 4.711370501866305 16.69777452363562 0 0 0
209 1 4.9024145771537775 4.770495253141078 16.80867656423315 0 0 0
241 1 4.923622029052598 7.107899835832811 16.60000246123899 0 0 0
330 1 6.558546847595474 5.562114180981536 14.517368254453086 0 0 0
332 1 7.337747437721719 6.648573033481198 14.784439281986332 0 0 0
334 1 8.709712829847229 6.6120902894847395 14.592848050725053 0 0 0
336 1 9.515966467196584 5.4118083158317445 14.732688848789664 0 0 0
343 1 10.46315483406598 4.575125656817813 16.532592743569793 0 0 0
458 1 10.925337739182888 5.485069081149105 14.645246719043147 0 0 0
460 1 11.583559506562413 6.615285143977982 14.7507380986276 0 0 0
339 1 12.619103851469069 5.837798814429417 16.570015759951076 0 0 0
462 1 12.92263442058329 6.545636662285604 14.490984120752234 0 0 0
464 1 13.79169009954505 5.433626784759108 14.565056616570683 0 0 0
465 1 13.250701449939667 4.673325064564955 16.634601743252993 0 0 0
503 1 14.703487358787275 6.891257183115295 16.551338198017984 0 0 0
469 1 15.369582805228072 5.771372290261969 16.817372690274983 0 0 0
467 1 16.75224225226254 5.7564649989610235 16.56718213335641 0 0 0
112 1 1.021556228186563 8.046801717424444 14.532604924138187 0 0 0
23 1 2.04527493748554 9.381244251440217 16.572018945339046 0 -1 0
119 1 2.0659227971464533 7.059806831339678 16.51478637973118 0 0 0
113 1 0.49612842246808814 7.011877258166075 16.64313380435702 0 0 0
236 1 3.091035812597857 9.180450350553993 14.620577513490591 0 0 0
117 1 2.7731874166581663 8.174097363366462 16.419757617233593 0 0 0
115 1 4.184226543946601 8.315483305369245 16.420944998334125 0 0 0
240 1 5.259506357843265 8.025497931203134 14.66026721326774 0 0 0
247 1 6.22889295733562 7.048884435107551 16.795131721604537 0 0 0
362 1 6.70558245995495 7.995610712558305 14.612469933635111 0 0 0
364 1 7.427944035082699 9.117163368610528 14.80615993152508 0 0 0
245 1 6.935787055205139 8.23544211782892 16.842798958233118 0 0 0
366 1 8.829717459776123 9.040983090005206 14.451859854914549 0 0 0
368 1 9.43266050931158 7.826461477173451 14.57492030100289 0 0 0
490 1 10.898980259835323 7.7571850170254 14.457608937449798 0 0 0
492 1 11.582334126714086 8.974491307713823 14.532223253472196 0 0 0
371 1 12.629869630157826 8.292852218595861 16.668451453537212 0 0 0
494 1 13.0175110995012 8.932880979598508 14.591184619496833 0 0 0
496 1 13.793996890105992 7.799026913122902 14.547863409847421 0 0 0
407 1 14.663566806829705 9.459123358101515 16.537083293419634 0 -1 0
497 1 13.343951815890843 6.9855263430453824 16.611614608521016 0 0 0
106 1 15.100249137596785 7.805247179956695 14.556485071547808 -1 0 0
108 1 15.77443517243657 9.070304910510893 14.622266548690085 -1 0 0
501 1 15.405794069942955 8.279072310027294 16.585350961462865 0 0 0
499 1 16.72318800440555 8.283381558160588 16.58590171734869 0 0 0
118 1 1.3471964108864802 1.5541234093618976 18.645334041315397 0 1 0
120 1 2.006100840721592 0.24129132795895727 18.597127141101318 0 1 0
242 1 3.395857865378089 0.2603249355794538 18.87032128810856 0 1 0
244 1 4.2229043234101065 1.35058350252147 18.900690921614743 0 1 0
246 1 5.556664826257122 1.4701173217910957 18.66867129437662 0 1 0
248 1 6.222517590769422 0.16183446303021193 18.785468625874515 0 1 0
147 1 8.40969824734536 0.8678055778636824 16.477562350045392 0 0 0
370 1 7.814177906467624 0.24874180651679623 18.402542333021884 0 1 0
372 1 8.384384035517865 1.4122677953723097 18.538714225944226 0 1 0
273 1 9.077654728862738 9.37885785725475 16.772214494456808 0 -1 0
374 1 9.805775755294722 1.4079209518665905 18.427145946846828 0 1 0
376 1 10.656315917330836 0.2448846606614856 18.767192080287487 0 1 0
498 1 11.985520932937348 0.24914977218836712 18.737930307184428 0 1 0
500 1 12.592364777210443 1.5646353667152668 18.779528094445617 0 1 0
502 1 14.079370416060588 1.3994977241343576 18.74816824565269 0 1 0
504 1 14.757715273979356 0.20975387890037334 18.816074154021003 0 1 0
116 1 16.88189610991447 1.4631652030401179 18.77647080882975 -1 1 0
114 1 16.157041142359105 0.2409321960502609 18.661133875333924 -1 1 0
22 1 1.376538967265769 3.8350949541771953 18.68466751895948 0 0 0
24 1 2.094130233804064 2.630507163726654 18.804911744497588 0 0 0
146 1 3.566516321868008 2.629722108867601 18.806508394609786 0 0 0
148 1 4.311363061735539 3.8368197590365036 18.876544881283188 0 0 0
150 1 5.633024195514716 3.9188403831707435 18.76400119741797 0 0 0
152 1 6.295417281782618 2.7226321646057015 18.70930393537845 0 0 0
274 1 7.670657239621883 2.6916182871501024 18.556800868433516 0 0 0
276 1 8.487897677600206 3.8313825542317224 18.748120546220147 0 0 0
311 1 10.373186816762585 2.2522091980217764 16.44913787023986 0 0 0
305 1 9.033428034245505 2.0904659109281023 16.583496404821148 0 0 0
278 1 9.873055494121031 3.733444064564185 18.66676132352788 0 0 0
280 1 10.540170686434948 2.645542368811372 18.659210142070535 0 0 0
309 1 11.004550100849675 3.4041364952678177 16.706219197812384 0 0 0
402 1 11.979247048441454 2.831692078112613 18.65875043649237 0 0 0
404 1 12.64581359356285 4.0251064875870775 18.6990860978799 0 0 0
406 1 14.140270895043674 3.969710903925141 18.76452521309596 0 0 0
408 1 14.788198493578605 2.6161139452734234 18.55781501781044 0 0 0
20 1 16.88237480544772 3.852019436833505 18.61643825639691 -1 0 0
18 1 16.1308414505518 2.6545870304952404 18.59786659041031 -1 0 0
54 1 1.43070274608076 6.2699900780058355 18.594010289535287 0 0 0
56 1 2.0865279534841297 5.011866080259465 18.855950150652724 0 0 0
178 1 3.4695588578355663 5.031320740303705 18.830366680310547 0 0 0
180 1 4.234677273733571 6.315252946146621 18.788939580004005 0 0 0
182 1 5.781545322530292 6.3426978139710934 18.739946927142505 0 0 0
184 1 6.363484954135352 5.07909824682288 18.90352200481646 0 0 0
213 1 6.897751506674822 5.86421184440278 16.7184981813701 0 0 0
211 1 8.405575013004981 5.890961212949088 16.543210409958707 0 0 0
306 1 7.733492041584733 5.108844944550829 18.50499364385066 0 0 0
337 1 9.040643975263649 4.650794871134296 16.632886980865017 0 0 0
308 1 8.364952685316371 6.313267178355621 18.624530552912333 0 0 0
310 1 9.740870177089262 6.204805998428894 18.747182000245537 0 0 0
312 1 10.538568402467586 5.065013912663335 18.8897276425819 0 0 0
341 1 11.26115079009178 5.815417244844735 16.756941574261504 0 0 0
434 1 11.97677632299439 5.187726182626332 18.809695279658925 0 0 0
436 1 12.71010882435273 6.311770555898838 18.802064375655924 0 0 0
438 1 14.066668566195217 6.360959135544349 18.462236598199354 0 0 0
440 1 14.785781867189659 5.208709788412959 18.89854513575625 0 0 0
52 1 16.86231639951039 6.302796013235428 18.711675374707532 -1 0 0
50 1 16.187163200308085 5.070886983733681 18.69051483286244 -1 0 0
86 1 1.333091575782647 8.823076425606027 18.653738987445486 0 0 0
88 1 2.105998097401821 7.450415692507545 18.669186709575165 0 0 0
210 1 3.440821119289933 7.574802024114549 18.336804111532487 0 0 0
212 1 4.136687325810173 8.710249815931657 18.644181189554935 0 0 0
214 1 5.5563563214389005 8.718260336432014 18.666198857604726 0 0 0
216 1 6.438491450796371 7.548301537266586 18.872997770074527 0 0 0
243 1 8.369555164582316 8.101168114399526 16.659259552307418 0 0 0
338 1 7.828138518916176 7.504198899763066 18.66344779243073 0 0 0
340 1 8.491825349645314 8.726136719620994 18.776003868579153 0 0 0
375 1 10.619268833938701 6.951317590075376 16.644931324955202 0 0 0
369 1 9.097075749144475 6.995518037919995 16.698943180099764 0 0 0
342 1 9.90264201588056 8.769064707276302 18.697835772133168 0 0 0
344 1 10.497936934679931 7.504501878220408 18.747979593035957 0 0 0
373 1 11.187916974919302 8.24332576537063 16.542720498159035 0 0 0
466 1 11.954217704354392 7.518459310016524 18.550358844759373 0 0 0
468 1 12.610817561021362 8.72041230703664 18.726709283058696 0 0 0
470 1 13.95111228200846 8.68569827945487 18.601190781285524 0 0 0
472 1 14.692458107533144 7.462886563840846 18.702013380642455 0 0 0
84 1 16.89939526646757 8.73451675320086 18.69156404961425 -1 0 0
82 1 16.167479077648167 7.563052711922917 18.807606147558523 -1 0 0
57 1 1.4849998570952612 1.8078974222941995 20.740546531540538 0 0 0
411 1 0.7193075917585207 0.6302430560340814 20.576172044738804 1 0 0
63 1 2.8987400344918193 1.7653686304200986 20.702290765154615 0 0 0
29 1 3.620521968516021 0.6144000889012263 20.912553981314993 0 0 0
27 1 4.996706461795524 0.6007527633336995 20.889643835577182 0 0 0
185 1 5.73166678676493 1.998761192890917 20.928352117322092 0 0 0
191 1 7.064697245101113 1.926894850093754 20.744843775154497 0 0 0
157 1 7.821037488618283 0.6854627945923958 20.46594667319009 0 0 0
155 1 9.256584027986275 0.6974354537761066 20.701312153284057 0 0 0
313 1 10.026562479864909 1.9307652047567083 20.76681100301242 0 0 0
319 1 11.39054207910179 1.839773826844674 20.45288207611236 0 0 0
285 1 12.130760288110267 0.6195348588523559 20.89036367621891 0 0 0
283 1 13.551729192241003 0.6262548224742054 20.864766265090765 0 0 0
441 1 14.135106206608594 1.8293645491939325 20.888988413329617 0 0 0
447 1 15.581323672814404 1.8089171701864908 20.80970934371221 0 0 0
413 1 16.334484147015814 0.6569927177742106 20.8864746375734 0 0 0
89 1 1.40258396187065 4.264746673246825 20.73671037908081 0 0 0
443 1 0.743174397227847 3.066398448740624 20.581557611418994 1 0 0
95 1 2.783847427135655 4.418077948580135 20.851732135793387 0 0 0
61 1 3.5742818092667914 3.2382461173715544 20.953333084387545 0 0 0
59 1 5.004441445652143 3.257690473137319 20.798162468466494 0 0 0
217 1 5.591786281003797 4.383073954902057 20.857146079342357 0 0 0
223 1 7.0662708588831915 4.302512454311036 20.77167074040887 0 0 0
189 1 7.773835948799386 3.087117286918958 20.727068367665215 0 0 0
187 1 9.315002770277484 3.1490598367960767 20.688560829024524 0 0 0
345 1 9.989961855075132 4.421904350218422 20.741353548034546 0 0 0
351 1 11.41413945628196 4.434857512466471 20.838671715458602 0 0 0
317 1 12.148365225462719 3.168193375607029 20.757906860549863 0 0 0
315 1 13.511692391664877 3.141357384934191 20.8627839623066 0 0 0
473 1 14.267364935073266 4.445890317029999 21.121387952257642 0 0 0
479 1 15.65240700111115 4.382489833083731 20.90885787418366 0 0 0
445 1 16.338775812038783 3.139807703563447 20.670202779784965 0 0 0
121 1 1.474465601583347 6.789934702479723 20.702825627066762 0 0 0
475 1 0.7336475885746525 5.566152681306891 20.495812089322648 1 0 0
127 1 2.7354292154672155 6.814464002567117 20.754088171010032 0 0 0
93 1 3.474671221816333 5.5991064449099825 20.945927256270863 0 0 0
91 1 4.879025296294504 5.53322522865578 20.679362815336983 0 0 0
249 1 5.661172898117005 6.713313550434144 20.789157983205126 0 0 0
255 1 6.947222695130982 6.635446264109584 20.74290398602262 0 0 0
221 1 7.7139560852249796 5.4369467401182225 20.78811762252313 0 0 0
219 1 9.221625032171906 5.524646178739063 20.75338595125378 0 0 0
377 1 9.929745586199623 6.813395715029615 20.812699125138383 0 0 0
383 1 11.326240979568418 6.869474219254465 20.69619353794011 0 0 0
349 1 12.088360774362378 5.616077990589466 20.855834558973804 0 0 0
347 1 13.518499373653738 5.542373148049055 20.79136014800804 0 0 0
505 1 14.271589941842224 6.606043620840727 20.55972087402685 0 0 0
511 1 15.659811867502986 6.673334066135839 20.612867318893215 0 0 0
477 1 16.367793280909193 5.613672582529992 20.743635236787924 0 0 0
25 1 1.4837204248058513 9.195497814124534 20.887874996480413 0 -1 0
507 1 0.7740561301337966 7.969726681444116 21.079571930284075 1 0 0
31 1 2.8878487002579116 9.182011725798803 20.96724548890886 0 -1 0
125 1 3.517742639328123 8.07585831841903 20.779963448278934 0 0 0
123 1 4.948864681293001 7.8964044531951245 20.52958304566345 0 0 0
153 1 5.731349016773473 9.129259346127453 20.729516396605376 0 -1 0
159 1 7.104200139028516 9.240525373146527 20.565802256858696 0 -1 0
253 1 7.9150484023997025 8.040109188368657 20.679355446233405 0 0 0
251 1 9.350696452576656 8.069664405710947 20.735219647408393 0 0 0
281 1 10.009061016380095 9.167904117385833 20.85992040451429 0 -1 0
287 1 11.39452468028671 9.181073340089025 20.89997538090868 0 -1 0
381 1 12.11826593642836 7.954266977376935 20.75768314717473 0 0 0
379 1 13.499047003208293 7.895989424248545 20.822487067415544 0 0 0
409 1 14.12450465969677 9.172019959694255 20.793109885544453 0 -1 0
415 1 15.56892259216737 9.198830417610127 20.777512200578286 0 -1 0
509 1 16.225442780036524 7.989506807265027 20.979965886189085 0 0 0
28 1 0.9472838980338787 1.2676439057727176 22.68208210558194 0 0 0
58 1 0.24027677647718973 2.5127661291454864 22.741208499588897 0 0 0
30 1 2.3907949841417837 1.2960277105340894 22.830503579702643 0 0 0
64 1 3.140103154463836 2.5244094356502336 22.946078066974266 0 0 0
186 1 4.543906228183557 2.5220473532759438 22.6842550818018 0 0 0
156 1 5.2524106884145745 1.294713179152135 22.896506708055462 0 0 0
158 1 6.663214330164875 1.2764496789383977 22.83906535515022 0 0 0
192 1 7.316183859619449 2.584657988320997 22.782570714242922 0 0 0
314 1 8.598582630230661 2.577733586397303 22.87999850584734 0 0 0
284 1 9.300282089754726 1.3569449546927337 22.70656664097166 0 0 0
286 1 10.716921257082904 1.2178559479632305 22.617838769500374 0 0 0
320 1 11.372385067512706 2.4661659177367508 22.89207592297249 0 0 0
442 1 12.77347902490497 2.518646293887658 22.823830407223703 0 0 0
412 1 13.567717833518827 1.3493455362389435 22.89316749497499 0 0 0
414 1 14.94156163661449 1.3955863277061409 22.89129871495096 0 0 0
448 1 15.65290917975984 2.564921895918765 22.903950974179285 0 0 0
60 1 0.9809205781854654 3.639593176854974 22.824998368671523 0 0 0
62 1 2.348090410421446 3.7250182965568217 22.79475929073976 0 0 0
96 1 3.035011415660994 4.981079499621973 23.133040002646627 0 0 0
218 1 4.48343773567146 4.941725963692865 22.89128480703875 0 0 0
188 1 5.197219575076646 3.8130164546501426 22.82525341941761 0 0 0
190 1 6.622198662524191 3.746469790275766 23.147585756426416 0 0 0
224 1 7.166944567698796 4.96880399344011 22.862750064990486 0 0 0
346 1 8.552494254841292 4.939182663547438 22.62374040724271 0 0 0
316 1 9.301439699468789 3.7424603095690023 22.71061781580627 0 0 0
318 1 10.726254356593822 3.751663612128674 22.738780985079494 0 0 0
352 1 11.448617591484663 4.927634548521252 22.85571559496389 0 0 0
474 1 12.764904650402656 4.969786648292842 22.879593343531614 0 0 0
444 1 13.397157194136463 3.738938668014111 22.98637298569347 0 0 0
90 1 0.2515524679606464 4.822296010194341 22.755673474529395 0 0 0
446 1 14.989652443834997 3.773623170387854 22.98068702115092 0 0 0
480 1 15.71946821387777 4.926447134089931 22.958898749567304 0 0 0
92 1 0.9150131620858741 6.173225134227582 22.638292986649443 0 0 0
94 1 2.3066704608269335 6.15688036644626 22.925644833231534 0 0 0
128 1 2.9646393196932745 7.37281190546706 22.790686344202747 0 0 0
250 1 4.323444826125791 7.358938084605618 22.792298915173475 0 0 0
220 1 5.075278100363975 6.183824020602158 22.72963738655399 0 0 0
222 1 6.449903245517717 6.094909313692076 22.780540969561933 0 0 0
256 1 7.2216782273948805 7.291293247779335 22.850365577744686 0 0 0
378 1 8.625952454646239 7.265737621619153 22.588823104527762 0 0 0
348 1 9.341929103385167 6.110917243493208 22.802171898741776 0 0 0
350 1 10.743415175473475 6.0980107436029405 22.651916601245063 0 0 0
384 1 11.422488829262305 7.220412159231524 22.874559795359836 0 0 0
506 1 12.784828765353273 7.261071664588037 22.753191520885128 0 0 0
476 1 13.56326864748443 6.033918472826237 22.877522085468733 0 0 0
122 1 0.19014638379030102 7.253190197494818 23.03518516452783 0 0 0
478 1 15.027295809877455 6.058512434023918 22.876499026675926 0 0 0
512 1 15.72001886997242 7.188445402623319 22.993931703163206 0 0 0
124 1 0.7809613947662237 8.46014438358178 23.111842554110495 0 0 0
26 1 0.2767109666721136 0.08878295978546369 22.670635747583287 0 0 0
126 1 2.2773024065120615 8.596383225984377 22.917967767454556 0 0 0
32 1 2.951411538761669 0.08237613727162163 23.03339882210807 0 0 0
154 1 4.449161872730311 9.742915652843195 22.88436771308338 0 -1 0
252 1 5.077896394576672 8.564600804412642 22.749972769828297 0 0 0
254 1 6.473275089110634 8.587244072930682 22.669139192052942 0 0 0
160 1 7.32252325389174 0.11223800473756995 23.04838411754985 0 0 0
282 1 8.652527746116336 9.754663849795161 22.78041986351791 0 -1 0
380 1 9.332700820405176 8.56371606118 22.967978590418674 0 0 0
382 1 10.704216467819897 8.45524801778008 22.858463092796836 0 0 0
288 1 11.406290852376616 9.711292975995377 23.08539188896075 0 -1 0
410 1 12.798045216057696 9.732287904878254 22.776414311974403 0 -1 0
508 1 13.56395934774997 8.44420473362173 22.810177265120693 0 0 0
510 1 15.035335698290606 8.476362257686414 22.822402965942416 0 0 0
416 1 15.707805982746658 0.08751908966471156 22.77745314304513 0 0 0

Velocities

39 -10.204421988624635 5.167263164411283 -5.589223436223577
1 -20.03432575977141 11.77516780953282 4.864733509544298
5 -0.9827547850421586 -3.9505528789533635 -17.487063756210016
3 14.863726274039056 33.264947655579626 -7.73639758032745
161 -15.690592564640275 -7.924179163322475 -7.600016630454695
167 -19.743430695628856 15.452531833867006 20.978197526824047
133 13.364146649062969 -6.402324346160189 -9.61230862355487
131 -12.59783302530862 25.172376619125508 -7.070320520748801
289 -14.136434142719612 9.500027530108165 -13.8864413016613
295 15.063611087784844 -7.899005165650685 -13.879734939922095
261 -8.702416239150178 3.844766848680425 -12.889465192416106
259 -2.443582037449369 3.3462615498182875 -23.140726531429966
385 23.76618396298573 29.597487023228283 14.138638739644486
417 7.501859577610269 -12.183115472088566 12.992104688539108
423 -26.96256521973879 -0.3911698929708298 -8.090048781053088
387 11.526985137211557 -0.650169080920588 7.2350168595642455
389 25.486724484731706 -14.138709700260687 1.261318985993559
33 23.57613076162467 -2.636494880366283 -4.120605150240022
71 13.519146239141437 16.14406260101343 -2.788276040094204
65 35.4709086960612 7.735070565571857 -7.755710458324799
37 12.267067219438472 8.226204215646424 -34.12064084415461
35 -16.279591006275886 -34.8819931247119 -17.731729524059364
199 -13.909207057226059 -19.29646021301579 3.1764653850551627
193 -19.222444742933764 -11.922275246881886 -19.07496823240183
165 10.826347420300674 -15.392332865728948 -13.04807522170719
163 -6.556158846368553 -7.2038473045950795 -1.5294397116347214
321 -2.660105790115632 -4.699111417998955 5.085381804826805
327 9.294997685089765 3.347625157560986 -7.4837460973575025
293 -4.749457519263405 -6.433817704437316 0.00847984880521314
291 15.466599099109493 20.081595840616092 9.760948144633874
455 20.866496249723188 -4.94527273350274 -20.34494397611183
449 3.4416101922618894 -1.1447637092359646 7.769697741330946
421 3.5395245182326076 0.5330310706441925 0.5692361423348049
419 14.282188126299452 10.920369115746063 -1.9319531922119568
69 -16.584231495057765 1.7638003118860894 -2.1466170917827356
67 2.7160690941961296 -1.1769368727574403 -3.3855805841951034
225 18.95238631569463 -10.23018813439092 13.576801860511946
231 -11.65002642712833 -20.987137672793683 13.613605626282583
197 19.197038559659493 9.804150469063366 -14.186667931469012
195 8.557791734205209 -9.922235729096158 -2.628026938800796
353 11.115571175539433 -2.4141021340935014 14.751589310178792
359 24.234840121287544 13.717662494136695 -14.886593947263007
325 -7.966490894633633 -1.49292460337469 12.967128032544386
323 19.151711342525118 1.6161109011096237 -15.650560177109643
487 -14.582043850047086 15.182347913385101 12.240268562982806
451 18.388552114360724 -15.281442162230526 -12.059205255845287
453 -12.506939206913447 9.892436952921773 -1.256344517289934
97 9.065742914749583 -2.9182353700939707 -4.064951393746488
103 9.753204811421304 -6.210183477590264 11.528281409157058
7 -4.092605613160111 7.7318947664988436 15.565588446396143
101 12.83854150550587 7.17301312607218 1.2838210214852346
99 2.158912936430716 0.42686060402974 -0.2746248493024153
129 6.0833487124042165 8.042976794284915 -5.668318816414184
135 -30.292989827801716 -17.858325165480668 5.7052380212848295
229 -14.518786317626288 -15.526976594928117 15.585565090146721
227 19.074867933692676 -2.7454309234040966 13.584597074442383
257 14.111885528994836 1.8096761657867366 30.987637524657913
263 -13.502956040596072 -5.01162734629337 -9.14245637204766
357 9.562306258508563 -8.503484962054332 8.006250567142994
355 -22.28711454396443 22.338303137506724 11.67554499439384
481 -13.784696109515602 1.511905401705694 8.163200154856716
391 -20.304863680693032 -6.558231015488547 -15.669449975370506
483 -0.2083584858633688 -2.5399503809113377 -5.450907104789462
485 7.178095911052007 28.272845008213242 31.311995400097388
34 -9.953878115559814 4.81843727441362 -9.553339010794112
4 -3.987356227068565 17.706265692577258 4.374532410616099
6 12.213266068386456 13.809085657356368 17.968152350959475
40 -5.997458607857968 -17.63788446511197 -1.5814456734457338
162 0.9649353352390442 -27.42293629719927 30.201215186671995
132 4.329012214154342 -3.550279124972629 -3.654205426909367
134 11.80342132951914 -5.571241723038747 -1.9497645223170375
168 20.21942740817292 -17.51167708179491 21.509520544817494
290 7.681775795129237 -20.30197036177612 16.379164080725907
260 -4.147522795323247 31.901562363993445 -16.746309017891182
296 -0.7768042466721536 -21.005274998768808 -3.3611854068107565
262 12.057692834886486 -3.607749857050648 10.556630824953059
418 2.0047965185125 -24.14600045868723 3.682089773341613
388 8.955908949875022 11.815867348391278 5.724565991456446
424 -0.43594421935432687 -2.332835266550274 -6.756941456748846
390 11.804397223036467 2.063738843472745 -8.64621258411174
66 2.092384670482084 -8.32850097132611 -4.640409114167172
36 0.7888317573407144 -12.155126415287594 -0.1853337816276273
456 -7.056073502590519 1.2821429454780733 16.24078264458873
38 -22.045973067698068 -7.961279857440995 -8.745350284502466
72 8.288408748261654 10.443236383378752 -24.463072718804405
194 21.75852046760151 1.9676359917059236 5.10747632356779
164 -6.832528879671172 -6.850205705210668 -7.837231146827536
166 -13.492920177012623 8.978808732263408 -28.722758748676828
200 -9.95858865154182 20.522625108693852 8.793503878989444
322 -6.06510150557085 -4.535189349218445 -26.869284877047367
292 0.5175736681569693 -22.876576838273927 2.714885090483187
294 5.062708279584265 4.22286969346749 26.85215102370355
328 4.046504964061706 -11.835090855473887 -4.220200340465265
450 -18.203750695187658 -14.572063514717097 37.63323652904876
420 -10.567284481819943 -14.838413551067717 -25.138444026569914
422 12.61096788374127 -7.227958705498993 23.45489403483949
98 -2.4117620010698677 29.89085447768361 -5.8735987267581224
68 -11.772134763696737 -16.62373702396447 5.190331572776454
70 37.62713184199966 14.247126084081925 -11.58486619962305
104 11.515210038428032 -7.0287672667744365 -8.40788112023272
226 -4.227442809134609 -18.062407086722004 11.760130809446528
196 -27.694779602568733 8.19033015990509 8.229301144752487
198 -5.563765428684094 -11.684953622620272 6.058548299266864
232 -1.5754443458014356 2.7891073607214034 18.700199198319012
354 19.2171882755023 -5.9827118643195565 11.125823855253422
324 -2.5976251047897927 3.808928741476517 -17.924694220855788
326 2.9799975913075394 13.780007696632557 14.047473962396243
360 -8.164176271787728 -22.487577259569026 3.1436441844912
482 -6.661366572702428 -12.014000703320017 -5.585766976731777
452 -27.67144076923401 3.860150976106969 -14.936134922477066
488 -4.6258298169755605 -11.725637097217906 7.166207227860314
454 -15.225222378842684 -9.326458644822633 -28.573739561315293
2 -37.010749237627635 -25.633778751934965 10.358759343743024
100 7.027821462108254 -12.887002263191926 -12.788730221780522
102 19.41106481745552 28.839459685721085 -17.49897412890002
8 -17.506735900378164 -4.6071943967428535 -20.21544057960321
130 -13.227860548500098 -2.6141539438019987 23.72740051333743
228 10.155266307993658 -20.673624932892622 -1.5532022498560878
230 -13.422269924577353 5.145431033930359 7.120287481578427
136 -1.7284884175353272 8.552411729319187 -35.41227369564095
258 0.46031327905687447 -6.376156787266568 -8.338156174875524
356 17.50818319958101 2.32457349602875 -14.86677596205691
358 -10.315492124856958 0.9425886166616891 -2.7326514595207327
264 -32.66978409286971 23.748536570098285 -4.695158178210338
386 -10.72859389250378 -0.8574044295282787 -0.701677043919757
484 -6.976797285132718 -24.135666887278543 -30.125245625075056
392 -8.05007412755264 -0.6144367758786184 -22.1965687098903
486 0.7306851080862975 -11.722429142187925 -9.17310099063915
47 11.12771064936842 5.336433980081201 -3.7415200518827536
45 11.973538432610438 -13.007317291853925 -10.059616371742024
14 -14.62588255449732 -26.16442510254907 32.09349057238343
43 -17.846650231575932 11.118445535881495 -16.602834900582575
169 -16.42769032470807 5.901621440057956 -5.070192949570214
138 17.12174728188545 -14.969659450518018 6.6966010671371174
140 -12.193022169467007 -20.058459495974137 16.0419356343606
175 3.771878920255551 -10.254726982756763 -7.425757781141378
173 -6.681109103404208 7.497973357786185 16.292142985157607
142 4.854514752942193 -0.5845708851689314 -5.693889416393357
171 -10.787411647373048 14.367460861786848 -12.649022735320196
297 -21.954560893553154 -26.907426536050863 -0.14790182943864413
303 -5.7319105925224765 3.255906019856661 -11.548171469813685
301 -1.9845111039316072 -9.2504222122526 -2.825854471738031
299 33.47105681023959 1.6016607337426012 4.74166500207413
425 7.937059565710792 6.663475462189754 -11.37575726373628
431 -3.2641800865468733 27.840771803875388 -25.096772399789746
429 5.473885969165705 -12.61764429153189 16.40400976700253
398 -24.59986980528434 25.897383695045566 -15.348293549405764
41 3.1317428161318834 17.557126091328144 -7.358623491754474
427 -10.626200291462618 27.744506473962808 0.3735440256205306
10 -3.3923613444479224 2.5890890145285232 3.2438614257413176
79 -19.73939364025313 17.11712477315247 -2.295797387533703
77 0.36085947478382696 14.959072351048505 8.47507813664315
75 -2.3506816499064778 -3.2236951430729195 -5.066480188921224
201 1.584277142349298 24.973127771184274 18.917975879261135
172 -5.02240517796494 9.13855828341497 28.308830333891873
207 -7.740878846478099 -0.5047129114494524 34.52436740069127
205 4.095044008453112 4.665629945447173 1.4668947860401889
174 1.5446122105286415 -0.07366955150191386 -1.8203368882029705
203 4.962647420943971 21.445934273398926 -22.808772593390803
329 -8.992422849451312 6.9529022917451115 16.078386384868434
335 -24.77771564059077 -12.487618100405193 24.96803437572656
333 8.084224010903563 3.756858010748567 -10.189762600854358
331 26.86286643413929 1.5239654442581252 -18.837664610327263
457 -14.97186978827766 -7.150830235344656 -3.6291998439714015
463 -16.58354538595336 -14.856328504573169 -10.55294870389787
461 10.447509289526396 -37.894295587934984 -7.519232743735091
430 -2.9955575950380986 26.214500216119706 -3.47189355137179
73 12.695119715261447 -27.51705429146977 -18.937308848715592
459 16.634968911449278 -15.51102515407482 -6.973847843648204
42 30.47309673725021 11.551341795672249 -0.41878348949862376
111 -5.7033910607528515 -2.9296341388188214 -4.832187695470105
109 1.5983690564700082 9.893623122432828 -28.29664026693346
80 -4.963306347331272 -2.2125120500655875 18.04801830852243
78 -7.08009393902745 -2.574686311889615 -22.538573769530075
107 13.064850878757195 14.794572104062171 -8.065487050227913
233 -16.99811278083737 4.418430795801305 -21.07497927518098
202 2.284869924721488 19.9499164583211 12.495526658634654
239 12.176515530871631 4.201525408114368 28.406128922687945
237 8.178679619914003 25.226150740204066 -3.3095176139240365
235 21.47537896048976 -24.92600498491855 -9.096951291945663
361 16.35993584566523 6.777331237745175 -17.96551553850919
367 12.497942391992375 -12.280414957610672 37.45106004410569
365 -8.387044577946993 -5.732314305966065 32.110823591856416
363 8.343415038535564 -6.824830079690358 9.315416118495973
489 19.94345611361094 -6.1840765950750285 -6.058423975092918
495 -0.880315245999461 -9.186954399989963 8.129476695006804
493 -1.1529747130400352 -30.396623598047952 10.643557889769495
105 24.69208325489875 -0.9302656769685549 23.68242529401682
491 1.4753324202852 18.512825178743626 -12.405822131522536
74 3.7018494881357062 18.896210210633512 8.919546288214228
76 28.513519272728132 -7.669362239583132 -14.274753332295553
15 -14.464207153661569 7.660578901931195 11.013777199666722
13 3.612356679352982 4.170755776526934 11.836985354729078
110 1.8439663147678245 3.959203028260098 1.3145897798263793
11 -11.828411192313853 14.873425236088037 14.542172278996091
137 -13.095820235520586 -15.957611751439428 -0.37176349148445925
234 12.067845296134083 1.4211891735162776 6.0662934237502
143 -18.195995977912606 -16.566656997225838 -2.3976178842989886
141 -7.200068791622653 26.80463655755552 2.900325887671041
238 7.6727326045608955 -5.218974417047145 -11.971552726322656
139 7.174083836533628 -3.8450622828499847 -43.05734057358325
265 -4.531320851764275 20.884891148209647 -10.825527849831817
271 23.103930452198473 2.7515649913060196 -23.028323675000745
269 5.687828170108516 -9.210125601098513 -16.648399851743374
267 8.079318556511314 6.979764544614378 4.762192412528458
393 -8.481322371987046 5.853077142589065 -1.2325920043981966
399 -6.584558427679195 5.751376346927781 8.927375667377065
397 16.37530384707284 9.513086567359792 26.25290737649509
9 -1.08860979475943 -4.821303363896803 9.418828252418818
395 11.0399161294683 -15.452818476587284 0.6737185893441671
16 6.362764997394084 3.2362816437794195 -7.694706649457905
17 -10.37779237941674 -30.35565467067619 -11.083296798783588
49 -25.314731007671494 -4.983112483811612 7.23559760441987
19 1.83311865351669 12.156196967404224 0.7270584835747566
21 -8.625608344518671 2.540819297696551 -26.611567331511406
144 -15.145796619145496 -4.939042446795623 -9.754459621311442
145 -6.700082372193149 -6.321120539298209 -10.358354994930169
151 -35.031805888707424 -4.720379325841722 -3.21538280027102
266 -7.213680250516275 1.4492633336711063 -15.591562031500604
268 -4.975847936728948 -1.582707440277892 -25.7412250237362
149 -23.661169020287247 -6.781375599487972 34.532420329568986
270 10.023401675136856 -27.917676413532767 10.50268646951142
272 -12.343234891502139 10.351093994670892 6.5514565800236575
279 10.71893990834467 0.6216373173500108 6.956404090467378
394 21.368660023996046 17.77877845768767 9.433359919678358
396 8.181575280481104 6.275446878007852 -1.8870164159772393
275 25.97651091824978 13.317407158631351 -15.288925029278598
277 3.094358166012852 24.354086889046968 -11.25109247200645
400 2.8488182882500683 -13.872844130736691 -5.914670417327417
401 11.132104753173893 -3.3211862180776577 -12.722047002536298
12 5.7559292115079215 -3.308524617733964 -4.129249093907653
405 10.2239982969031 -6.89280574157597 2.411684650069563
403 -16.810880192392073 -11.470571619618756 27.190374907271696
48 15.490505914578794 -10.819173537900328 -4.790270361043498
46 -17.365687870679384 -1.834567640908444 3.387451772881345
55 -8.60522140878526 6.72312116214888 -14.923381178337586
87 -8.425096016778198 -29.339082332747726 3.7835183373845727
81 18.346144143457785 2.9298778950620603 -20.419829704447327
170 -6.103099306951855 18.463763956882836 2.590672005377137
53 34.43042196935115 -10.89397245713541 -5.395586438156413
51 10.097245536875546 -7.331006800953219 -21.244571450591152
176 -1.2706837153134025 -10.97666842782202 -0.1560403316711243
177 -2.1023530025929786 -10.830563424461186 16.436480880148952
183 13.899329649934213 -23.436540984879386 15.995324712657988
298 -15.872289549609274 -17.94761469221177 -30.184199570670955
300 -18.611241694899388 -9.56219777944828 9.721880601515506
179 -7.443684723227401 -8.270982185277 23.96263176162034
181 -1.242006694518173 -22.43753318782622 1.6074748395318934
302 21.41912427490134 6.847841522163737 12.889420877021156
304 5.358055488295725 -18.713783796434633 3.3285174724029036
426 -31.46619280058009 -1.655223392633493 5.012483350386491
428 -4.474289291451665 12.41563227982576 5.9471278543011685
307 -12.361022893030215 -43.369164451925776 -13.361622174492656
432 18.700820094313723 2.4139426419143306 24.53880228843036
433 5.598005659790394 -16.32276771891035 4.937040894152255
439 -15.51636757761001 7.137436923249523 -14.379978682973096
471 -3.9248764313299778 -25.378909838299457 19.27001016153992
44 3.8951260103706846 -4.467807074716416 -11.084701485005771
437 25.561779173389112 -20.579466733460492 -17.358141264859942
435 18.05126829609084 -9.680698440326482 3.8020892333583434
204 -1.18549038468566 -25.430893332296726 -26.213964968422697
85 30.77354224905472 22.86882713522039 5.736433595211367
83 -9.108997354092764 -1.544134026222696 22.371932873630435
206 13.741540112933551 -4.466589001635902 0.11198114654038402
208 -18.356817485089874 -7.113175725693435 -10.417065948702547
215 -0.5321029736167593 -18.757232776211676 1.3545761239924348
209 -13.867523050261742 4.786528521766354 -3.95998351435864
241 5.718621843429356 -9.838895268136342 4.006115646575678
330 -42.35142586131698 -5.794018496086709 6.576763094886835
332 -21.83969754100006 -6.551257592782703 -12.89534693594186
334 4.801190348070493 -4.336807314133514 4.846932010533285
336 -13.68244915420029 25.387000507819177 10.659477260274388
343 -7.770205570008096 17.838861267960585 -27.467046638676027
458 -25.36335278165405 -16.87729530036285 33.77162618901544
460 -26.271722445988903 1.8130713467302046 -12.674457622601928
339 1.0618082664662463 25.887398828479498 -10.00698293321478
462 28.753090873966805 -16.805896542558994 3.764326340682863
464 14.876597707064896 -11.613102771413809 20.6839024572621
465 12.369173616423595 -5.098637277505104 18.803037556994813
503 6.637293393784583 7.035380351106034 -20.686676662610704
469 6.1922031687550465 14.90771172765479 17.1135777575693
467 0.28452688926807956 -19.39747232297941 0.6826130690275387
112 -7.827527370310552 -19.36204510267735 2.030484731842753
23 -10.555068211257847 -3.0853583117827084 -1.442049416099772
119 30.622204765175404 -6.933933673996711 21.006113619984745
113 6.5594434191913855 -9.212587900579907 8.453622436601199
236 -19.8792006774384 9.731738299931276 -20.72877656268537
117 -4.781103241144183 26.476503312585027 3.2518185884832054
115 9.479676305562116 -12.574246468136336 -10.453609777745266
240 -9.141063972653631 3.023703448237275 10.037618972265832
247 13.59965180876535 -5.598352488816716 -10.795983750825966
362 17.84514648956444 6.957887207996532 2.8015549412109424
364 4.200250272492792 5.299058735508932 1.2075837301362047
245 10.84067637755277 -24.549520909330976 22.37498924107121
366 -6.198050268906012 -1.9951365723659966 1.305930415072563
368 -13.64889916094417 13.664560386644675 23.20456606522383
490 -0.2153295331864867 8.08974337369785 0.26406674904446575
492 18.826857909392725 6.898568620561084 -10.39132373898816
371 -18.000247910035142 -5.197498086515822 4.2979916946021754
494 -13.900037914759782 14.859058447091208 -1.3943557917584397
496 4.911858842164538 -22.0288808510006 6.77989244804718
407 -14.198680054044742 -4.19430512739794 4.847673115342318
497 38.06377146438241 4.488381964083611 -12.799245589191107
106 0.5458238625495464 -5.463692652713415 -11.862444697748986
108 -10.620116966554084 -3.982354768471557 31.57220703569812
501 34.25419204717155 18.32315107322972 -3.7129502743151197
499 -9.590739987083506 -20.637236120552092 -15.457057474740719
118 -9.734902448298145 -6.213451428521889 -4.029513446498099
120 1.7531929629363758 -23.263442893199464 -0.35503761198313843
242 0.24898981976576767 -5.87950197465789 -2.4522732141634735
244 -17.434611397278182 -5.13513465744857 15.928619170456946
246 -14.289193242602217 9.643740843206558 21.563649394990474
248 -16.456999470688718 3.82731994449615 15.359134231254615
147 -4.212904114570191 -10.159194870169301 9.251849890290856
370 -23.41074513802579 -2.4349882609362825 4.548392212511481
372 -30.037785316847813 30.072108901360714 -13.138758389258232
273 -9.079909654331827 3.8401902258094576 3.267939692796623
374 5.940434331856003 -6.15644371485433 24.161312414504753
376 -2.9014130105643177 -6.732845770349925 33.50257812867069
498 -5.142716147281679 -14.895618751919118 3.7269805538322744
500 2.073309242171645 -31.69303937495755 12.582745111948983
502 -6.458021651850673 46.3758136482942 -16.169652539778458
504 0.6429377367877726 -8.604967094825291 6.6489011895519745
116 0.10528903790791208 -6.271363187882109 -4.611841168489722
114 -22.085844102294097 -8.963319126908058 -7.717402777127655
22 -5.336714356226303 31.862542811458432 8.145395132875457
24 -18.074166672047465 -13.851333409860494 -2.8904817476622062
146 -10.315207183403297 36.56845636345441 -16.853671442023956
148 15.448477079600547 -15.019414552352185 -16.03681670194269
150 26.761684489233105 13.450935604982487 -7.1591690431404285
152 -36.1883357681219 7.191688143378359 11.37942061611312
274 -4.583363176709132 -1.770100137768728 -28.815966387062993
276 5.442927920385537 15.161465996140855 -16.79667538551221
311 -17.78025744381048 4.308577857971178 -9.194414248536807
305 24.57425903772736 -0.5496818979466384 12.753294883566728
278 -7.753970141171258 -23.825926988965243 26.239517069210024
280 -22.49261667555358 3.4198153642723055 6.208452490874003
309 -1.0587521890282547 40.9485490193078 5.171454063118236
402 -0.5873791361016466 2.4828653019921574 26.729658231306026
404 27.107945917308452 -15.789898720675536 11.673410111752649
406 14.135044231313406 -10.669872409130434 31.468168540985587
408 -6.655215883371852 13.263545200224065 15.937382444424067
20 0.9858096934738809 9.523644703661683 12.113216461731438
18 -17.678885423874902 -27.802810726686594 7.695265423433319
54 -15.693364737355047 39.30491619359113 -0.26290441320249697
56 -19.124023463403717 -0.4103773574577329 5.599371751497462
178 -12.713137134475458 1.9589987599754644 -12.71834299494695
180 4.828927185771919 42.47045427530462 -8.568143176344345
182 -2.78537358243354 -3.053503325526462 -9.751609728702087
184 -8.562219638581793 10.229430959597087 -6.45365924117253
213 -23.598703730049298 8.114032804081981 3.495727142633013
211 -22.907227028362026 -14.912565291527446 -23.482019551616673
306 30.480731182698197 3.1247698270964026 14.341369931328225
337 14.151880742173763 -19.979612121899155 -16.680890116952643
308 15.791801346793441 -4.340869986924825 -3.7659848177042576
310 14.165193951553384 18.873969430516947 10.867348978370533
312 -4.902027422710046 6.818408485282226 24.466858968038164
341 -23.074014284912412 19.4295555033624 11.495169101160617
434 20.775815201758988 18.755864837961806 13.383221479522145
436 -3.4164329740328023 4.981182834545565 -2.5949130152009987
438 -30.174876986887917 -19.71903238449136 -16.652880471564185
440 20.215177235624143 -14.729590555539152 -10.795058926219777
52 12.126125475035952 7.764208550599419 -17.27665239713678
50 1.5213459216469025 19.508023883156547 18.964167847625436
86 8.350611935195104 20.23828644475859 -8.445108304509406
88 14.36462854938504 2.6241660679174106 8.441583313245225
210 -16.041888377012608 11.478553815454541 -8.68572295425218
212 18.717858462152158 19.399492205985105 -21.26917972058749
214 -26.372702810862098 8.22946645704249 3.872986487146715
216 -13.154867614804967 -3.275508004214939 4.3317512185907345
243 -9.763119096961265 -17.94582853940473 2.383339776462618
338 7.251545079596845 0.6937994268384834 1.6109947308196115
340 -15.866799617133214 -11.485059900180342 5.0439540816139345
375 17.051822160744003 11.98593207437197 6.4287639368289575
369 -18.449578467243263 -13.62213869470102 2.915774126775905
342 -7.7736581157328715 -2.433845811135124 -1.728691735981826
344 -17.25576094194989 -10.077661104934514 -14.747562935389407
373 -6.690764420848082 16.37364759496923 -0.0777223646520329
466 -7.245566201977191 3.5729113816468403 -20.637416373939068
468 11.231839214687183 12.211819308533846 -19.10489803266549
470 18.37722510282513 28.247631235094254 -12.252169656275191
472 6.855412628950755 6.856382950989107 -25.510833305463663
84 -13.324071670743383 17.71543453221869 11.732489788778057
82 3.971252327631817 24.051962175155786 3.486615411880888
57 22.99427120762622 -0.37175910960790814 2.71792439702187
411 -4.83791010325271 -41.459175663794554 -13.328701374047617
63 3.0418764654999197 16.00677379168215 1.5558406915943486
29 18.180988758302977 -6.355244746234665 -15.011815427106738
27 -3.6591075939911692 22.237671226784137 7.113544061521215
185 32.540716791866615 -16.394259495409205 7.405334298434802
191 4.733762104866387 -13.464232807383677 -11.631819036793107
157 2.488755188670253 -10.854128311336877 -19.05102027038239
155 3.0262670815489794 -5.477835779525627 -18.680447456686473
313 11.33488483092546 -17.677472117549847 -6.76559600037399
319 11.98836512310364 -22.778378358687835 11.233406371843937
285 -13.901722631518728 -9.32193128201782 4.3481695531051345
283 20.009968348064415 9.091138415097943 -8.67235724068363
441 10.254388401596565 2.616760372269809 6.377945506738779
447 12.975126850836332 3.3526124212069726 -24.817827371524945
413 5.8239150436435185 -8.875784969975497 -0.7227803923348128
89 18.922572383613065 -9.421404212888074 9.605237008631782
443 9.029673112426794 15.923948130416688 10.075425920157997
95 -13.730697320985351 6.655848630987957 -4.022651732098159
61 -6.025193047631724 -5.067453223794674 -7.456491364951783
59 1.446036647892827 11.281967175356586 -1.2463139559913647
217 22.636074668771126 -15.222281742027457 -10.323464192414932
223 7.583621788243291 2.718901032101477 9.499425465892479
189 22.52327531091829 26.40436476354081 15.255226417673521
187 -6.103219232885856 15.830307663409252 8.052187223336952
345 24.629889496248392 3.887287316837085 -14.96361260863977
351 5.112595552558448 -16.939957689749047 15.772624168051532
317 17.39852496965199 -0.8956354000269605 -3.54698070989741
315 -7.4010932681653685 31.182241360835455 -4.272730364589809
473 4.043018672651489 4.4232066429411825 -16.53827169151274
479 -0.24180616240018793 2.2688307413169246 31.29199139457759
445 17.263733613514752 -14.140525194342906 1.4509879760678153
121 -16.38178772178168 19.22507918977786 12.368937639128397
475 -1.368610129901412 12.404783663920309 5.309685037596669
127 2.08167137684079 15.460916315098252 -25.18281683371909
93 -24.364755597697233 -11.70581601111338 21.921147661685428
91 18.7521926480907 -12.219316165282535 8.74888280548131
249 -18.486079792102874 7.254018317100819 7.762130481879657
255 -11.861838142316673 22.126927583131877 -13.366768816193188
221 -9.223476608832856 -2.1363221385546445 -44.06498955743086
219 2.6732135008953715 -5.086848507437615 -3.3191118610622135
377 -9.504907977229175 -2.997740671895975 20.192347013010043
383 -10.51943959461391 33.706178805678235 -2.409134401367314
349 8.553858721069927 -39.0653106004726 -33.993890081610694
347 -20.01505079482576 -11.697562334625033 -8.63048640383153
505 -7.185306566800464 -4.720608603069431 23.599042032171344
511 -17.473062170827514 16.39930662980038 19.840847533111017
477 0.01842309553345573 -13.381195855705627 -33.94231847335554
25 -13.69510935798842 25.25309907291 7.8561940141260775
507 -4.054111224493325 8.63061750264598 23.369598557264684
31 1.3685838947248987 -28.21755009743846 15.950960258715828
125 -20.29449882017717 4.308102195149073 2.6846425091508905
123 4.2805522019589555 8.383153348863267 15.935401861408446
153 -4.814731348680546 9.654262555316476 11.149105878345537
159 -21.971081949473657 9.0383699085041 5.123305087855865
253 10.765655603314658 2.451816143401097 -11.54050186573509
251 -5.969008427131949 18.993081068789763 23.42539683831547
281 -1.9763469410446493 -14.449025293687766 1.099954440374303
287 6.192284798899586 -13.053258283949042 37.891159479494384
381 -1.95515926684356 -18.629767852091593 -6.515853990507849
379 -12.77347316431506 -1.800670172720638 -6.08394260576083
409 -9.591394060209911 3.488123617812022 24.74988864395909
415 1.5412376316052072 -13.80284979699389 -13.507418615697059
509 9.310544612392924 11.821544109580799 -0.47938830432698876
28 -8.609452852743479 -16.709235465771442 -24.057244256340063
58 -19.84360110693292 14.249552565415538 22.08953828700574
30 7.755910765038981 -3.7810449532617794 17.52598125216811
64 -6.5107208846507305 6.781251032344449 -1.8012577530811265
186 20.69223994720063 -0.9631833360072619 9.17921098055303
156 -8.5944126491359 3.3181309745000136 7.778050411933022
158 -6.272398300528021 27.865107358155594 8.161990621159907
192 18.852863479088953 -2.71106897066521 17.58037542974285
314 -16.21856475264657 13.532813483810989 19.355747804256687
284 -22.144447955961194 4.655423803970268 24.965055261529205
286 -1.8413823381729846 24.246848864178368 13.125188450473273
320 -7.122001257398127 14.646243800640148 -4.845389325693965
442 6.367794836804065 12.44266309061984 -14.578804191280145
412 13.274924115879816 -5.443499437097584 1.0264424502932044
414 6.0003287571795525 17.19636843295621 12.365189660478183
448 -29.652669373930824 -8.20675857829979 -7.6862165612504745
60 9.142281525353555 5.288569568221344 7.521076692806911
62 -3.832316226013202 2.616934251198295 -0.3813899526802475
96 19.578214477328746 -24.387525579351685 -10.61016514425659
218 9.32467283304103 -6.364758543582059 5.737992371000496
188 -20.157955765488932 -16.761959268477007 -5.121559554051234
190 -1.8634506041728658 10.255809127528611 -1.2358178700260944
224 -6.049492845697712 15.528358326743811 -18.677912449955667
346 -3.661906251676527 -18.5080188907578 -21.914177341690213
316 -8.819778751015287 -25.395854510450427 -2.9847323943315227
318 13.703938995162886 -26.663339892067235 -21.29083326788694
352 18.842491333265407 -8.399273553769453 -17.710446472651864
474 39.05773454721585 7.833550106458818 -16.189829045266954
444 -0.586436348126478 -2.1383779259151985 19.462252204862693
90 -13.851152639194154 4.335599441190169 -5.248579697597022
446 27.5858228415223 5.846608471090208 -38.58052338730719
480 14.05634734602389 1.8343974277756672 6.988107326688091
92 -8.331849270574388 -6.022531258832075 19.814642934158996
94 20.829643807242253 33.906125898514134 28.57493604705194
128 -1.81758616503977 -5.972162010124301 0.5132531679298884
250 -2.609564339953181 25.56976612628473 -9.209382303279844
220 29.078766299157003 -4.82285371023993 -21.41912942164921
222 -10.123117550497499 15.79926869252986 9.985169870238865
256 -7.80335005210317 15.738701690640168 23.54967156564302
378 1.6518495692694908 -22.423381981082777 -28.327304784017713
348 3.5119352967967057 10.917144155837626 -24.201135715803836
350 8.526667975203484 5.021786302309213 -17.157014870919134
384 11.90025930916268 16.416065997929692 10.188055741847677
506 -0.798082947463487 -9.036578924888353 23.372786427982067
476 33.086840434328685 -1.6158290054787339 -2.4785968660937114
122 -15.00252717731661 11.503228289705504 -5.673778717585876
478 1.3640201730134593 -3.5813469114574996 -1.0034510862736874
512 15.568358361932058 -12.976604390609454 14.49744879975544
124 20.080324993187872 7.802788572829023 1.7005062069525032
26 -6.473915818558985 -22.56267922339108 -7.318140647680944
126 -16.76049353354062 3.1976179667149545 0.6784689694037913
32 3.266186787486931 6.259125741874054 -19.419534684391465
154 -6.143321520838496 0.629123017756318 2.1851654988913856
252 22.571963618861872 14.963900172674801 0.6562906097405532
254 13.823390949450983 -0.71448035488786 11.950465925497182
160 -12.21881079295429 13.465934105926314 -10.90687009917795
282 -6.89094062996139 13.300093991824497 16.089796798774433
380 15.684506263546561 0.4650882021201048 9.257060883295384
382 -3.1931881747041886 22.05420100807032 30.734139059789364
288 9.385621902213195 1.0603652227853464 -0.06673997755052204
410 8.353894440079028 -11.941505735202469 3.493038314773152
508 -30.512944742912996 16.476309691702475 -24.669708441866558
510 -3.614064180644289 -40.66230637758008 7.818621778585767
416 -18.63893140816013 17.808173799012927 -16.99454331556219
