LAMMPS data file via write_data, version 22 Jul 2025, timestep = 200001, units = metal

576 atoms
1 atom types

0.3653370520056365 14.741625028140746 xlo xhi
0.36930449589950687 14.737657584247604 ylo yhi
0.36477866966373895 13.878201770336718 zlo zhi

Masses

1 12.01099999691024

Atoms # atomic

6 1 1.5913752851690333 2.7478802600149845 1.2217805460547146 0 0 0
3 1 3.970017249623699 1.4473948797346492 0.42428693803176437 0 0 0
9 1 2.825735963752129 2.740675176985011 2.088832346098336 0 0 0
193 1 5.065188614257433 14.675962094309327 2.073149212887455 0 -1 0
204 1 6.361695230017344 14.629119878996603 1.2553959470315417 0 -1 0
207 1 7.443464358221511 14.658179142466926 2.0962570240357596 0 -1 0
195 1 8.757959598582058 1.4327836523725568 0.39383669770980023 0 0 0
196 1 8.730528123306236 2.6540383244311196 1.2421459705872673 0 0 0
387 1 13.583428506349186 1.5934901974245328 13.82449088140318 0 0 -1
11 1 1.6090565493788485 3.965694459872072 13.848774126840244 0 0 -1
76 1 1.5069951493856653 5.089413234881345 1.2635866216881988 0 0 0
4 1 4.008000216715628 2.586224942707332 1.2216254568252132 0 0 0
13 1 3.9204226522179693 3.953205567759578 0.45401717063385777 0 0 0
198 1 6.366575850679419 2.7419785359623163 1.2259285135647429 0 0 0
199 1 5.201371139517947 2.726120733295982 2.121066147170666 0 0 0
203 1 6.323081672325092 3.9264048452313056 13.874615955520477 0 0 -1
257 1 5.1931425021806445 5.141739463944169 2.121298777734533 0 0 0
201 1 7.574758440018605 2.6707605743950698 2.0815412649949474 0 0 0
205 1 8.699182295601478 3.9303462533049944 0.3822073354647071 0 0 0
391 1 9.919280833957657 2.7655129432113967 2.0427130965395266 0 0 0
390 1 11.204447232377394 2.7507157336249826 1.210187677172568 0 0 0
393 1 12.40019564016162 2.794748135489799 1.9995390214371742 0 0 0
395 1 11.250593833556113 3.994296019528927 0.3862119543954002 0 0 0
460 1 11.147589548262467 5.216144029220373 1.2644586702184855 0 0 0
7 1 0.40016358936042806 2.799928269355872 2.072953625340599 0 0 0
388 1 13.507411008896753 2.653608520993541 1.164724309268677 0 0 0
69 1 1.4464889338402698 6.354727662191579 0.3966738302381223 0 0 0
78 1 3.9032987770147973 5.153959854778606 1.1779207926105155 0 0 0
79 1 2.6552684626924745 5.143314336338358 2.011984349774977 0 0 0
68 1 4.014681735604135 7.490392235572319 1.1736233831018872 0 0 0
268 1 6.443062896831233 5.1222477209070405 1.2014953443583503 0 0 0
262 1 6.30526356026845 7.564328784544139 1.2723062434289707 0 0 0
271 1 7.5835890881005525 5.128285500555348 2.0895012919997638 0 0 0
270 1 8.819554945729237 5.099456587689654 1.2120791598595644 0 0 0
449 1 9.998356307172433 5.149199903335627 2.029090883610797 0 0 0
260 1 8.769437222750764 7.523848144501063 1.2254283166680235 0 0 0
455 1 9.958676043334595 7.6294814204654555 2.05232699783138 0 0 0
453 1 11.129106689618876 6.405866943017536 0.460009433048414 0 0 0
463 1 12.304991105794581 5.145396133221673 2.0672359196857384 0 0 0
457 1 12.289341291690306 7.65610834704899 2.1092262384817255 0 0 0
65 1 14.67297869564495 5.052520389965726 2.105610212370771 -1 0 0
462 1 13.520336122062798 5.120308107471854 1.2822328953541318 0 0 0
452 1 13.519247068095744 7.656816575693428 1.2564979282699036 0 0 0
70 1 1.5973866709244813 7.596142172354189 1.1636766132190255 0 0 0
75 1 1.5250484746314996 8.809368126068577 0.41715528860163104 0 0 0
129 1 14.685577122958854 10.009198721694045 2.0417599396279367 -1 0 0
140 1 1.4997839143800307 9.982378545364888 1.2678584895853717 0 0 0
73 1 2.8171978097768635 7.535817329451711 1.9433825248092993 0 0 0
77 1 4.002135631489172 8.80790976859781 0.42220185211067773 0 0 0
142 1 4.001462852298216 10.007816758308298 1.21845141116673 0 0 0
143 1 2.7659362952921125 9.95123562887919 2.010681746785237 0 0 0
263 1 5.143669183487823 7.456732590959256 2.107172083809652 0 0 0
267 1 6.466648369365199 8.696620173424542 0.44530344814640765 0 0 0
332 1 6.343218892527923 9.947645950410717 1.2363920804215973 0 0 0
265 1 7.520125195517802 7.5240278918804995 2.078913499340606 0 0 0
335 1 7.592902373831088 9.929340740595265 2.04914158452127 0 0 0
334 1 8.732570240387528 10.090915313103046 1.1939952902722344 0 0 0
513 1 9.89806256404647 9.974799454037452 2.0795076965341863 0 0 0
454 1 11.131031914735793 7.628430228765752 1.2231881863692573 0 0 0
524 1 11.116212783968773 9.976627451668016 1.280316927287588 0 0 0
527 1 12.182269951220555 10.007797613038573 2.0794037172093853 0 0 0
71 1 14.725606867621782 7.673960847940636 2.0121975814474173 -1 0 0
461 1 13.507345652779893 8.841464447226102 13.852380741749643 0 0 -1
134 1 1.5870984189588588 12.376818711816988 1.2222889762161517 0 0 0
135 1 14.71466942618606 12.359648803763356 2.006700416847644 -1 0 0
131 1 3.906858397376775 11.177166682915225 13.864903726134456 0 0 -1
132 1 3.8928750248128425 12.356189397308004 1.1996668351236197 0 0 0
137 1 2.738152815371323 12.394559728921358 2.0726091690802786 0 0 0
321 1 5.179873739738611 10.007947290875236 2.010799251177903 0 0 0
325 1 6.340288686542939 11.09219325675198 13.84394802396191 0 0 -1
326 1 6.30660607232304 12.260549685413519 1.1908337401946054 0 0 0
327 1 5.104293631882971 12.188982938804742 1.9481909177101926 0 0 0
323 1 8.763633144644217 11.21640876685029 13.767432380141518 0 0 -1
517 1 11.128866253581375 11.262029948721782 13.830401132112383 0 0 -1
521 1 12.422926004267655 12.324927866015486 1.9499321974297106 0 0 0
526 1 13.469844714649241 10.041498869869415 1.206297141019621 0 0 0
516 1 13.509345131159634 12.325306122339565 1.1425743770433736 0 0 0
12 1 1.5161594909695317 0.37848030033444857 1.1701788680148604 0 0 0
139 1 1.5151591003406846 13.532175228613369 0.3666130207607301 0 0 0
14 1 3.8872214566189522 14.669801396820944 1.2708011463478894 0 -1 0
15 1 2.6427255424837233 0.39085840397156346 2.086701793944882 0 0 0
141 1 3.940781400499699 13.497621342145116 0.4091681080198745 0 0 0
331 1 6.351065803484461 13.396630044061144 0.39238728878659895 0 0 0
329 1 7.540069109286732 12.304699696328175 2.0711353420470973 0 0 0
206 1 8.687320808034968 14.7238605953486 1.1865134254370773 0 -1 0
385 1 10.00006148767816 14.73462358344377 2.0002542207445995 0 -1 0
324 1 8.718584199533971 12.355735187174844 1.153279415784516 0 0 0
519 1 9.938527634660325 12.356252334908735 1.977745641456904 0 0 0
396 1 11.10646772298098 14.691432331259453 1.1204345758100844 0 -1 0
399 1 12.26154328733789 14.734362799845272 1.941061354582869 0 -1 0
518 1 11.144636029773334 12.3759659336021 1.097090644090347 0 0 0
523 1 11.142711865711487 13.562893962263601 13.758090564465695 0 0 -1
1 1 14.694557298747043 0.3814299288369334 2.005000712906388 -1 0 0
398 1 13.465702315748551 0.4052335178094637 1.1445730833359051 0 0 0
21 1 1.4699599719964325 1.5212465302611982 3.7688421821371265 0 0 0
28 1 1.5047709797683728 14.73201882557611 4.686852770363651 0 -1 0
16 1 2.6686322909730964 1.4944254960230283 2.927356989347024 0 0 0
19 1 3.958184425101254 1.5881073503746408 3.6715605247490655 0 0 0
30 1 4.031557625111889 0.39431130197690845 4.619759714698173 0 0 0
194 1 5.20623048453392 1.5645257282357323 2.94813217258721 0 0 0
213 1 6.3347943068667565 1.5562442909675014 3.770635253353886 0 0 0
214 1 6.34123309032052 2.7664655891075727 4.512377143608871 0 0 0
208 1 7.51879659678743 1.5491646168670474 2.901526928883275 0 0 0
211 1 8.793355692486728 1.6000565020987998 3.7729428979460313 0 0 0
386 1 9.999840557233906 1.6109608326402791 2.997597302031675 0 0 0
212 1 8.701670568567067 2.824725381096546 4.598563486633901 0 0 0
400 1 12.406121719392438 1.5836053124694796 2.830976521160029 0 0 0
405 1 11.235985975734362 1.5519363407128344 3.706925562119356 0 0 0
2 1 14.71438938747582 1.6020678915559068 2.92915927290935 -1 0 0
403 1 13.550801004372197 1.584590775287129 3.7722856531882942 0 0 0
8 1 0.414255809256215 3.9518577134374135 3.0138504363072087 0 0 0
22 1 1.6601107340087118 2.766158531899538 4.60836414201353 0 0 0
27 1 1.584482629236455 4.054573958104032 3.7685121154928316 0 0 0
92 1 1.6300158563511349 5.199304884528214 4.691712464204533 0 0 0
10 1 2.8042343732419814 3.9711196786316685 2.8781642562063654 0 0 0
20 1 4.015165458717169 2.8324710140980263 4.578991997364604 0 0 0
29 1 4.070707415504279 3.9447687614853435 3.706155415267794 0 0 0
94 1 3.9819954174450096 5.153046424394207 4.540213086780933 0 0 0
200 1 5.094266848056431 3.9829789052019158 2.8566502064872235 0 0 0
219 1 6.316753743913877 3.984572700421337 3.7458986739220608 0 0 0
202 1 7.580319407590976 3.9934372754808383 3.00028229531844 0 0 0
221 1 8.762991438177771 3.9821058984852638 3.746089912190482 0 0 0
392 1 9.975647410991552 3.9276400472458857 2.956800740656886 0 0 0
286 1 8.766009588342428 5.127643960052617 4.618034391163211 0 0 0
394 1 12.376606899422466 4.01607711151315 2.9718343788446973 0 0 0
406 1 11.177395438348736 2.719999666003696 4.647167078886007 0 0 0
411 1 11.170735039370218 3.938259450537886 3.8091583669805407 0 0 0
404 1 13.527604658100543 2.8528087301021072 4.629489034626051 0 0 0
413 1 13.544546967942914 4.1215771745387535 3.8155657550073996 0 0 0
66 1 14.699441832897534 6.375686640906765 2.873398612999215 -1 0 0
85 1 1.6077764158830363 6.363004973021009 3.7743423539271572 0 0 0
80 1 2.8296558555420135 6.314377058506693 2.930868398564104 0 0 0
83 1 3.966858683210551 6.269615331558142 3.672194564197982 0 0 0
258 1 5.167331628096059 6.281365701027249 2.94971780534737 0 0 0
277 1 6.420171007680882 6.370692149105096 3.8259031703655704 0 0 0
284 1 6.373395753173175 5.163761045980816 4.6657437246679345 0 0 0
278 1 6.40730292705217 7.620011155668241 4.50033587295401 0 0 0
272 1 7.492230040636573 6.33557693847275 2.8618579287450263 0 0 0
275 1 8.706871598490991 6.46806226096737 3.7061130989545004 0 0 0
450 1 9.93259600383578 6.420666507477149 2.9081959359329246 0 0 0
464 1 12.182815791631835 6.467188727442119 2.924219225944982 0 0 0
469 1 11.086562219918356 6.384758734777318 3.7994065250188034 0 0 0
476 1 11.158869555612746 5.119144378430637 4.635179960690041 0 0 0
467 1 13.435344839810554 6.383886692556675 3.6812647239006475 0 0 0
478 1 13.427430291739817 5.269632704493096 4.62613144464922 0 0 0
468 1 13.520603873022061 7.6570981525766255 4.553503169504482 0 0 0
86 1 1.5784103589414964 7.644007287978877 4.624635933850744 0 0 0
72 1 14.699578665607923 8.768760572526293 2.8253600420278464 -1 0 0
91 1 1.516818170860954 8.77290820418461 3.6735319395871975 0 0 0
84 1 3.971507236769272 7.448178287588348 4.473194304991568 0 0 0
74 1 2.840194985174451 8.73113002897771 2.802682974564479 0 0 0
93 1 4.025645210966655 8.746246717283213 3.637993485142868 0 0 0
264 1 5.176808987180543 8.793618665899299 2.890889527613706 0 0 0
283 1 6.380727701341661 8.841326234093376 3.7181721190017485 0 0 0
348 1 6.403574367134602 9.952316075081686 4.642228630404612 0 0 0
266 1 7.611086977223938 8.71442317093269 2.8441346495618736 0 0 0
276 1 8.850837446610225 7.598642414305902 4.641383286965652 0 0 0
285 1 8.852902473786898 8.725655270903331 3.8232946004264243 0 0 0
456 1 9.975658205203853 8.749788079394097 2.9531053781521543 0 0 0
470 1 11.07368465137392 7.524958568854655 4.67131944668415 0 0 0
458 1 12.310635231692011 8.818313554488011 2.8633770885575154 0 0 0
475 1 11.152165021566567 8.812979916959463 3.8702837254104168 0 0 0
477 1 13.510879322863715 8.849820616672599 3.679197351709688 0 0 0
156 1 1.543818721214358 9.934513039730021 4.516563353595064 0 0 0
149 1 1.448963930644607 11.15767092974012 3.732694374278724 0 0 0
158 1 3.9880779354454856 9.871644464405925 4.475153165751865 0 0 0
144 1 2.7186526980267027 11.098628416611579 2.958729767693602 0 0 0
147 1 3.974301685393135 11.14827344742848 3.7049982999352453 0 0 0
322 1 5.182746370099679 11.129324365347497 2.9230390983940593 0 0 0
341 1 6.328931191191421 11.17024145634516 3.76066523721046 0 0 0
342 1 6.2606041857259696 12.306969339451616 4.571615408124069 0 0 0
336 1 7.591902465177989 11.090606205387683 2.913906596439326 0 0 0
350 1 8.78915304480564 9.961041713554007 4.599880621973231 0 0 0
339 1 8.801960646539222 11.178772233446914 3.735437299761972 0 0 0
514 1 9.893700322283635 11.19036997178695 2.900069965710839 0 0 0
540 1 11.11936667272688 10.065348656934894 4.56187843202429 0 0 0
528 1 12.378746403103381 11.193638217707342 2.8999405071352555 0 0 0
533 1 11.23147688491153 11.197158465847359 3.733698953511927 0 0 0
534 1 11.174949782413709 12.31630170175848 4.540833080983042 0 0 0
542 1 13.612735964693837 10.06498065843289 4.555007116602957 0 0 0
130 1 14.685423038828109 11.237487660641186 2.867216612975201 -1 0 0
531 1 13.537862947385111 11.231855667701808 3.7578638285977535 0 0 0
532 1 13.459557078015461 12.328545860816355 4.574755932343987 0 0 0
150 1 1.4722341989345988 12.362697675411603 4.550378925097402 0 0 0
155 1 1.581914877518899 13.600731070845978 3.7597169502462395 0 0 0
148 1 3.9753145518363078 12.347882578951662 4.623157971247115 0 0 0
138 1 2.774004278898813 13.55421031430556 2.871895608085345 0 0 0
157 1 3.9363936680160854 13.556902334494552 3.673117668368027 0 0 0
220 1 6.400641544965484 14.723685350418734 4.6351264906283305 0 -1 0
328 1 5.094227982677099 13.516859202014665 2.8394493051824763 0 0 0
347 1 6.274850804325852 13.524306265446302 3.77921312733806 0 0 0
330 1 7.508237365031294 13.429598124054362 2.929682115379339 0 0 0
222 1 8.707571620281541 0.37085371691700786 4.583752429336918 0 0 0
340 1 8.75367350454604 12.341272339786247 4.593178368143851 0 0 0
349 1 8.676756551734293 13.504819700173648 3.736906163194205 0 0 0
520 1 9.911549160048398 13.477356830761696 2.8653077674214518 0 0 0
412 1 11.173509013474238 14.680240967387814 4.592727618278836 0 -1 0
522 1 12.313106199808434 13.652337421487136 2.781000779472009 0 0 0
539 1 11.125003182270529 13.531162536649944 3.693777424252266 0 0 0
414 1 13.48004509210271 14.709591597366558 4.55213926191262 0 -1 0
136 1 14.682953874312329 13.578892958772201 2.8496233946881033 -1 0 0
541 1 13.498677848372676 13.494349584331257 3.6801650929428282 0 0 0
32 1 2.7667307875833353 1.5240651898347428 6.36019554066174 0 0 0
25 1 2.829405642969476 2.728347578907721 5.404455057164985 0 0 0
35 1 4.049591445391494 1.558035485501111 7.154996150006299 0 0 0
210 1 5.14708535920697 1.6048389050907408 6.319560112254924 0 0 0
215 1 5.156584896146516 2.7786572372698615 5.438072234883125 0 0 0
223 1 7.519755168437441 14.729576291869005 5.44712904147727 0 -1 0
224 1 7.461866284657707 1.5956608488715116 6.209475305337665 0 0 0
402 1 9.867449035792188 1.5083902738258916 6.235802670169942 0 0 0
407 1 9.866183312197485 2.868217668012102 5.389350663219511 0 0 0
415 1 12.28475196037581 14.727424677412037 5.457810514428498 0 -1 0
416 1 12.32883780290846 1.5366592764857288 6.289814968095405 0 0 0
409 1 12.316521190592848 2.821203086846079 5.5052339695807895 0 0 0
421 1 11.160902513670688 1.5549753312348686 7.106892376197601 0 0 0
17 1 14.683989720473694 0.4154392035982537 5.448657501893899 -1 0 0
18 1 0.40775854848167015 1.589592487315678 6.2296277223953975 0 0 0
24 1 0.3918945287237016 3.98542807566964 6.331169995342525 0 0 0
81 1 0.38891694967839674 5.131153377708004 5.472005234332381 0 0 0
26 1 2.8734380253543543 3.9932836054866394 6.311885920419047 0 0 0
45 1 4.02316123421043 4.062753585928391 7.1680119432201 0 0 0
216 1 5.151180264486945 4.013701148517887 6.243899228508153 0 0 0
273 1 5.20166941546202 5.131385455746817 5.3849809021852275 0 0 0
235 1 6.351803531490851 3.9575421411544522 7.188895023944824 0 0 0
217 1 7.496364265816688 2.764878560520089 5.476838545236575 0 0 0
218 1 7.592980414116948 3.977659827685776 6.217181895087157 0 0 0
408 1 9.947192199689976 4.02300882551908 6.24704795762796 0 0 0
410 1 12.404715880135765 4.038991449000264 6.338454057098615 0 0 0
427 1 11.115912281080671 3.9437583327418437 7.138816065694965 0 0 0
23 1 0.3805979533218107 2.838598974244811 5.449722968637534 0 0 0
82 1 14.71277014179718 6.370920852793073 6.18158395687583 -1 0 0
101 1 1.5252230856843128 6.351223199007053 7.050591532239409 0 0 0
95 1 2.9262160944961377 5.173175139176366 5.437106837632422 0 0 0
96 1 2.807019509117785 6.3796278830035655 6.328085465304481 0 0 0
99 1 4.03485206279311 6.419160452521879 7.097995841635312 0 0 0
274 1 5.176068550747696 6.386600048205448 6.249980574300568 0 0 0
279 1 5.161908780209365 7.586265484923559 5.282585256844349 0 0 0
287 1 7.590458449902461 5.1696790350244 5.459291217237142 0 0 0
288 1 7.515458993892874 6.403918968211369 6.288629712386253 0 0 0
465 1 9.958670782956208 5.220771691094021 5.416691552481374 0 0 0
466 1 10.03892269672896 6.252412462728871 6.353246724844884 0 0 0
291 1 8.803997038649722 6.3343503837526205 7.1723603474941475 0 0 0
479 1 12.287585204085403 5.167011853548414 5.502448973694859 0 0 0
480 1 12.324070027802279 6.282502677334545 6.365357436076205 0 0 0
485 1 11.217086542730815 6.284472956987386 7.235961903042701 0 0 0
87 1 14.709812071211896 7.7017897771448185 5.432444777603742 -1 0 0
107 1 1.594997288061089 8.71447091434289 7.084879204298524 0 0 0
89 1 2.806061004585339 7.602927026796095 5.410608414573169 0 0 0
90 1 2.8141437865234806 8.799680140288729 6.254563440910799 0 0 0
159 1 2.7589075779177996 9.988233771271513 5.347754909717019 0 0 0
109 1 3.9610947548012456 8.802836733445982 7.02671329349853 0 0 0
280 1 5.203983588468056 8.776830663710893 6.303119734006989 0 0 0
281 1 7.557449895311858 7.56840507568911 5.464395027029879 0 0 0
282 1 7.540134761491144 8.760642402233536 6.245636908532351 0 0 0
471 1 9.95053685208223 7.506604618575845 5.562619496981163 0 0 0
472 1 9.969774089203845 8.695364903919529 6.338663917555039 0 0 0
473 1 12.33073532676184 7.45918461208851 5.447900313681787 0 0 0
474 1 12.362919759035822 8.746370803049338 6.214120899211495 0 0 0
88 1 0.4011951252717587 8.786597340766654 6.3080071679781655 0 0 0
160 1 2.743100736861851 11.143824776123818 6.260875402409995 0 0 0
163 1 3.947359633996078 11.06745117749249 7.042582232763081 0 0 0
337 1 5.200722296001933 9.931174108317336 5.361914423007701 0 0 0
338 1 5.113071114373565 11.065391259050418 6.170952667040227 0 0 0
343 1 5.09739125732379 12.337599685893082 5.475570468838396 0 0 0
351 1 7.60608910867161 10.00000885976608 5.422612143526975 0 0 0
352 1 7.51153820764997 11.099710739980008 6.280191722521916 0 0 0
529 1 9.97738504671069 10.017935404761111 5.382186501515631 0 0 0
530 1 9.93007294843278 11.088115566255507 6.258471977326315 0 0 0
355 1 8.787407771111955 11.16435515044516 7.092261706863505 0 0 0
543 1 12.380302082108773 10.013447099589293 5.305575177905537 0 0 0
537 1 12.253915814339624 12.317882304994761 5.432101304690454 0 0 0
544 1 12.320754938236387 11.118772304349516 6.2418009392932765 0 0 0
549 1 11.114954987574926 11.065094237846772 7.037495075775492 0 0 0
145 1 0.3882132110360992 9.994814024033627 5.489804406220973 0 0 0
146 1 14.603316306545203 11.181745843525476 6.226558119416076 -1 0 0
171 1 1.4615765431864147 13.599529027674581 7.11970050558648 0 0 0
31 1 2.827870845419973 14.7076163487436 5.419275084542347 0 -1 0
153 1 2.733511404093289 12.27587612606425 5.41207750256903 0 0 0
154 1 2.762828632693515 13.428280309219772 6.244430991037131 0 0 0
173 1 3.9332723207199516 13.506712165209567 7.162587643580008 0 0 0
209 1 5.225564644385566 0.37600531101373846 5.513246336892724 0 0 0
344 1 5.171715753453444 13.513324744104139 6.3760642195890025 0 0 0
363 1 6.388683046391741 13.54168725244028 7.0866932915354415 0 0 0
345 1 7.481295480741071 12.377156875374993 5.378873884306368 0 0 0
346 1 7.525400238085965 13.549776542375838 6.254036590701856 0 0 0
401 1 9.930724097806056 14.675981574486432 5.390501596993658 0 -1 0
535 1 9.967452117475876 12.317497969348668 5.484134843193763 0 0 0
536 1 9.869612722660833 13.544326143904776 6.315709942220722 0 0 0
365 1 8.69794965663159 13.561713863840051 7.115039797113931 0 0 0
538 1 12.282544624196532 13.505328983947678 6.227370198052851 0 0 0
555 1 11.064073103948388 13.509759681518801 7.180287025704813 0 0 0
151 1 14.691252850241167 12.347327467272425 5.40411030209517 -1 0 0
152 1 14.63440042248072 13.513194962525493 6.303115050184242 -1 0 0
557 1 13.441003670595968 13.521533330269563 7.069370822405095 0 0 0
37 1 1.5959396546738716 1.5190427641418451 6.9935143626205285 0 0 0
38 1 1.6481120867488357 2.6594497761024973 7.960746769845099 0 0 0
41 1 2.822501054374592 2.752267522869233 8.787620025263475 0 0 0
225 1 5.141582127387702 0.40561963194091866 8.820330062797984 0 0 0
229 1 6.413266049900265 1.5845212548185457 7.154942877235215 0 0 0
239 1 7.527264675401429 14.677805396991921 8.787765181163131 0 -1 0
227 1 8.672742677801008 1.5410722988518468 7.124673339277221 0 0 0
238 1 8.682222938615805 14.67251717342729 7.9375130371249005 0 -1 0
423 1 9.945269169791999 2.7667912275304163 8.825944239714888 0 0 0
425 1 12.314040575355577 2.803046673888047 8.80124593553619 0 0 0
33 1 14.734240604084956 0.39526905682472474 8.796731400163834 -1 0 0
419 1 13.524464663358636 1.5565170259247116 7.136491927918965 0 0 0
39 1 0.42255504784425213 2.683046536821987 8.710691211768454 0 0 0
43 1 1.658113549219111 3.89046488463818 7.147732773693756 0 0 0
36 1 3.9962354633166095 2.7631528678021215 8.003938527289293 0 0 0
110 1 3.99849698255013 5.235570923477636 7.898503818175385 0 0 0
230 1 6.4035636050629225 2.781728890654189 8.003251439901437 0 0 0
231 1 5.189123737190618 2.852685151969585 8.826271403540657 0 0 0
289 1 5.21496005577626 5.2168819350502025 8.854967490338614 0 0 0
300 1 6.3859333427594 5.116414417334981 7.986366346780748 0 0 0
233 1 7.568195166367166 2.7356896347054973 8.80542134812526 0 0 0
303 1 7.599703787028297 5.1118215178184485 8.794647679992318 0 0 0
228 1 8.792598780802592 2.7843115778689027 8.022908493419461 0 0 0
237 1 8.7855134910767 3.9355809263411152 7.126088176844921 0 0 0
481 1 9.974149244242255 5.082762844442897 8.922087573389431 0 0 0
422 1 11.135517163358596 2.7378000844137307 7.982028065443879 0 0 0
492 1 11.170011315914163 5.079798871082891 8.065094756565909 0 0 0
495 1 12.46079511069707 5.244005317530663 8.83968776923965 0 0 0
420 1 13.548398889865634 2.7591420132388063 7.964921901260843 0 0 0
429 1 13.509133901874371 3.983006436034271 7.14139670316016 0 0 0
97 1 0.46055350313244503 5.102186474088751 8.900171112028678 0 0 0
108 1 1.6210809695527162 5.051667691040329 7.9811817002979835 0 0 0
103 1 0.42185479748219185 7.472236247631551 8.803895668865472 0 0 0
111 1 2.8599451357089043 5.075237060104332 8.80489729741694 0 0 0
293 1 6.340823045841667 6.364717041161049 7.098450777237327 0 0 0
294 1 6.376681070918066 7.50366916075682 7.977249861520799 0 0 0
295 1 5.205369759222443 7.515047392468201 8.782714868188815 0 0 0
297 1 7.586270443197973 7.515731743906443 8.744932328121704 0 0 0
302 1 8.833386265383275 5.164029463550754 7.997863050680811 0 0 0
292 1 8.83600222984775 7.540100157619853 7.948541941738421 0 0 0
487 1 10.018125502751523 7.543743408410133 8.86378660709917 0 0 0
486 1 11.196731871378066 7.468419000095134 7.996250666843171 0 0 0
483 1 13.615794942490172 6.326793989233874 7.072581003840672 0 0 0
494 1 13.641544016729704 5.203429638409535 7.9557624298899 0 0 0
102 1 1.5459221989267564 7.471489218473575 7.957468790596829 0 0 0
161 1 0.370888163542275 9.924309208355556 8.826045513140125 0 0 0
172 1 1.550950371647638 9.938209276921029 7.924630568280772 0 0 0
100 1 4.010162288479078 7.592923870745855 8.026625586723323 0 0 0
105 1 2.8238502897233286 7.47009617827477 8.916154879353153 0 0 0
299 1 6.366967277497982 8.752832199688807 7.102945987647338 0 0 0
367 1 7.518715258123025 9.926532516067923 8.827516835554771 0 0 0
301 1 8.764865377220026 8.7287927259129 7.1595508531382945 0 0 0
489 1 12.373809874495578 7.6062825293463 8.81288888321282 0 0 0
491 1 11.167481242236352 8.673042960396302 7.080721452198623 0 0 0
484 1 13.587297510154414 7.63748621300781 7.955037529954067 0 0 0
493 1 13.525235093775109 8.803898605765134 7.069713504613196 0 0 0
558 1 13.486516850840644 9.936024929191952 7.943843534928487 0 0 0
165 1 1.539512443899412 11.101878406904255 7.063944711244385 0 0 0
174 1 3.94107332489717 9.970235311128562 8.018729466330441 0 0 0
175 1 2.6909863354849075 9.872052766718966 8.738283377637146 0 0 0
164 1 3.9228101404251405 12.230101943625382 7.898687177570064 0 0 0
169 1 2.751526412375896 12.25255642676694 8.735787547136214 0 0 0
353 1 5.15070003796876 9.999692865762867 8.766414593777338 0 0 0
364 1 6.366197949142406 9.910761973417966 8.013200803049571 0 0 0
357 1 6.336041262761037 11.053686169029149 7.1081480925269105 0 0 0
361 1 7.5599377851759355 12.305320875709125 8.7317740481351 0 0 0
366 1 8.776688242896043 9.936289228546908 7.995891314032268 0 0 0
545 1 9.914588722860287 9.900123431377597 8.832210806670092 0 0 0
551 1 9.962587963232682 12.311865394969086 8.795660415180024 0 0 0
556 1 11.076798616106117 9.894432620325674 8.018152310361264 0 0 0
559 1 12.301674558076854 9.859169211559013 8.887379767746284 0 0 0
550 1 11.04309973960607 12.283389078469035 7.8941565958296165 0 0 0
547 1 13.447691837267769 11.145349867373746 7.106532709168376 0 0 0
167 1 14.736930639546788 12.30764492291511 8.765914393038205 -1 0 0
44 1 1.499910618219599 0.40701591312119234 8.001985496365627 0 0 0
166 1 1.6085581623775955 12.266129693960409 7.95744214089293 0 0 0
46 1 3.93102009420511 14.684476618804709 7.996003990321612 0 -1 0
47 1 2.6434362858875375 0.36935057815420436 8.805159465861752 0 0 0
236 1 6.331809763244362 14.640561563353522 7.991831122229828 0 -1 0
358 1 6.2855281158750795 12.345317906485366 7.927940930696653 0 0 0
359 1 5.1115907026843805 12.338501457476692 8.898985211758701 0 0 0
417 1 9.910778814641777 0.43533039930620987 8.794865242827296 0 0 0
356 1 8.707861149396606 12.371856823336163 7.8924145074192 0 0 0
428 1 11.121840213041256 0.4128763752716651 7.937696199446471 0 0 0
431 1 12.338762984060295 0.39411986216690664 8.85033472435593 0 0 0
553 1 12.241152000165606 12.32903479630058 8.829229117764111 0 0 0
430 1 13.545782909893 0.4386064586993861 7.967320407222749 0 0 0
548 1 13.51874270505768 12.289781664121406 7.992801461369974 0 0 0
53 1 1.5514709594059957 1.6017335663745684 10.501405151710417 0 0 0
60 1 1.6075222227639747 0.39683871583315866 11.376015043327746 0 0 0
54 1 1.5989112842084348 2.793070895331196 11.38097661586713 0 0 0
48 1 2.7325276300485646 1.5885449493092147 9.688639241024775 0 0 0
51 1 3.980257010795751 1.58412665790035 10.512558550996946 0 0 0
52 1 4.097118620671747 2.741224341377217 11.297489234603487 0 0 0
226 1 5.171350940806115 1.6771813917396685 9.678323647808387 0 0 0
245 1 6.3990102873098165 1.642543530716847 10.530994454099744 0 0 0
246 1 6.422201406597836 2.8107286941704905 11.326300136480622 0 0 0
240 1 7.503711664635248 1.5626746510992457 9.606849385850026 0 0 0
243 1 8.793220285549705 1.5603837665592848 10.422834311928403 0 0 0
254 1 8.713279862707736 14.736468498584086 11.244521914287857 0 -1 0
418 1 9.989506007924454 1.5662637912047397 9.697353423468774 0 0 0
432 1 12.367954967483325 1.5890981421288974 9.686410710766184 0 0 0
437 1 11.163076039431331 1.5604140858880913 10.524093325957423 0 0 0
438 1 11.137587472938254 2.7853154589194586 11.340788449788128 0 0 0
34 1 0.4248509729821315 1.581492565434958 9.59383896789151 0 0 0
435 1 13.614214386106738 1.661261642172087 10.460517130900373 0 0 0
446 1 13.572461850873491 0.4368709178568017 11.34587274445257 0 0 0
40 1 0.3682927346851723 3.919799036351633 9.609767743845124 0 0 0
59 1 1.6258427587579403 3.9546595172341026 10.4417694600078 0 0 0
124 1 1.504327940840605 5.052572201283539 11.349873752092858 0 0 0
42 1 2.942098470407236 3.9201433799920586 9.727318133375828 0 0 0
61 1 4.054149624334651 3.920012033112605 10.569916047517298 0 0 0
126 1 3.951308170656854 5.119392414394895 11.346997953383655 0 0 0
232 1 5.2081874071117715 4.047284350790134 9.589292279949508 0 0 0
251 1 6.356353726166025 4.045003619487607 10.416815679727867 0 0 0
316 1 6.4076454500515885 5.19098560243161 11.329792811476336 0 0 0
234 1 7.580996502837113 3.915222680507503 9.71830607614032 0 0 0
244 1 8.792932373740477 2.747826543539466 11.377684753004207 0 0 0
253 1 8.645549021095892 3.932170845205241 10.646901402743577 0 0 0
424 1 9.918904688836754 3.9801452766379994 9.753104619819725 0 0 0
318 1 8.702799482671281 5.138465049536035 11.412502105253946 0 0 0
426 1 12.37992801893932 4.084963442933235 9.70056781587185 0 0 0
443 1 11.210610915226464 3.971605883229647 10.507275576957039 0 0 0
508 1 11.12366169199267 5.141506072577696 11.362576680215286 0 0 0
436 1 13.627263710161305 2.816490578087339 11.317634588666799 0 0 0
445 1 13.615679342768573 4.015884712235985 10.424944282903155 0 0 0
117 1 1.6740179988194592 6.286678321350234 10.49225917260963 0 0 0
118 1 1.5567483022548847 7.519265166968395 11.329054099785221 0 0 0
112 1 2.8225390219414055 6.311163998543039 9.672465673409233 0 0 0
115 1 4.014566275365883 6.273114758103921 10.584243846973392 0 0 0
290 1 5.243872854725919 6.434486849663628 9.653448691847215 0 0 0
309 1 6.416253699541198 6.44769095107078 10.50741625441122 0 0 0
304 1 7.587443316856309 6.300788670084219 9.705594498062945 0 0 0
307 1 8.810338112540819 6.34854698326236 10.557845647076181 0 0 0
482 1 9.95714713548966 6.365261565157722 9.694519020743321 0 0 0
308 1 8.720581387364113 7.575994370224681 11.48369292234674 0 0 0
496 1 12.389597000667617 6.4536715009629795 9.678417401421548 0 0 0
501 1 11.218194379940979 6.334846205920751 10.496649163140914 0 0 0
502 1 11.091755379477757 7.512392355630691 11.448673194350754 0 0 0
98 1 0.4460160889466991 6.316204313671012 9.612875680528418 0 0 0
499 1 13.59036332540343 6.39200016911969 10.397604657795624 0 0 0
510 1 13.488876721581125 5.219036921201552 11.344606505108656 0 0 0
104 1 0.39445247341248957 8.75975459291028 9.633668974307925 0 0 0
123 1 1.546806624036355 8.787752003723547 10.507323268187548 0 0 0
116 1 3.936839578502643 7.5523369485844185 11.415499812960439 0 0 0
106 1 2.721776612267732 8.679366845505221 9.65833239470285 0 0 0
125 1 3.993667057797246 8.675349691820347 10.491107053192804 0 0 0
310 1 6.313367785519851 7.668553108550898 11.409037792383167 0 0 0
296 1 5.165090960453252 8.685288667306406 9.564870292089648 0 0 0
315 1 6.262756053434333 8.767193031005455 10.486569230634883 0 0 0
298 1 7.5262181239841945 8.743551057296603 9.649203671069591 0 0 0
317 1 8.697177828500319 8.801969841253868 10.55857505972819 0 0 0
382 1 8.773793308293875 9.964568761187323 11.221880846253976 0 0 0
488 1 9.955377804029808 8.722415050942306 9.710641479629253 0 0 0
490 1 12.32000158779207 8.67909781619792 9.730659598835384 0 0 0
507 1 11.134477890899404 8.646186901010307 10.537455156497193 0 0 0
500 1 13.570418071479796 7.556475758731337 11.38065355885776 0 0 0
509 1 13.55057784017448 8.734942897672848 10.510501944543103 0 0 0
188 1 1.5176293922675927 9.947721854289892 11.373547835122544 0 0 0
162 1 14.727544106912065 11.12902677913656 9.703561750583019 -1 0 0
181 1 1.5453729966762122 11.128668675316597 10.518602471357717 0 0 0
190 1 3.8966877132939386 9.874575615536155 11.291795994258425 0 0 0
176 1 2.771085005838636 11.073100005373398 9.60538731841996 0 0 0
179 1 3.9088236488612544 11.121748747386 10.432697403203141 0 0 0
380 1 6.329380193414747 9.956930565121095 11.225515907052406 0 0 0
354 1 5.257702065680301 11.16015711349349 9.678294667368913 0 0 0
373 1 6.3894976980370455 11.219529498699547 10.469620963184811 0 0 0
374 1 6.394192634393891 12.344876468563427 11.37661669481561 0 0 0
368 1 7.554626588606426 11.139744572086908 9.685978705759899 0 0 0
371 1 8.750067701777379 11.148622777382517 10.41892577794848 0 0 0
372 1 8.707468882980077 12.372169671296067 11.286426112419532 0 0 0
546 1 10.014105989431467 11.158682387755839 9.595128251207374 0 0 0
572 1 11.13266089462471 9.969230082903678 11.346343727210344 0 0 0
560 1 12.371848257916106 11.094221475465343 9.643207935274887 0 0 0
565 1 11.1917796943311 11.168059673441913 10.517081074823967 0 0 0
574 1 13.575798680366798 9.933341166487796 11.408091075252514 0 0 0
563 1 13.613977253484737 11.195849933375591 10.531897146856908 0 0 0
182 1 1.6074900333450481 12.340151584382482 11.32123768134685 0 0 0
187 1 1.6338555475451064 13.609839320910172 10.433071669081215 0 0 0
62 1 3.950473529815 0.4193289422726387 11.264747985195655 0 0 0
180 1 4.036421030534328 12.297526404066971 11.371924076426234 0 0 0
170 1 2.811211353193807 13.543953888768726 9.571510878313173 0 0 0
189 1 4.009340256483416 13.507740397808725 10.463847820458907 0 0 0
252 1 6.3818129077738135 0.38848248610963054 11.294686295263594 0 0 0
360 1 5.231860353391925 13.587917187594286 9.660457455284284 0 0 0
379 1 6.3464466705942755 13.510014337981119 10.508624902924476 0 0 0
362 1 7.522399602410422 13.545671841201884 9.56137818481433 0 0 0
381 1 8.700348907125683 13.57517248361684 10.426246969938127 0 0 0
552 1 9.937651150867449 13.502262689413769 9.624508865741813 0 0 0
444 1 11.102583031427212 0.3893115327919645 11.303477129657464 0 0 0
566 1 11.065451083955505 12.346459994357172 11.326276972535624 0 0 0
554 1 12.29162791226259 13.608028910557628 9.658965951935535 0 0 0
571 1 11.140481639512934 13.570468343844691 10.493473890789621 0 0 0
564 1 13.553800688887055 12.421653541785844 11.407592193872238 0 0 0
168 1 14.708720315316668 13.443895827522024 9.632402393437545 -1 0 0
573 1 13.586584155550902 13.61387581600173 10.388908946204406 0 0 0
5 1 1.6206162036833056 1.5597809341897004 13.802593199057487 0 0 -1
49 1 0.4212193875644271 0.37295296437585496 12.113973929348253 0 0 0
55 1 0.44993207961781967 2.8295481016380952 12.182264071490964 0 0 0
64 1 2.864822773981261 1.552476298683359 13.061529281172412 0 0 0
57 1 2.857383827241941 2.829930114654504 12.131735035073662 0 0 0
197 1 6.332989747500245 1.4357428322179733 0.4103195820146812 0 0 0
242 1 5.229899911902444 1.548348887141717 13.020043771716601 0 0 0
247 1 5.1432767895691 2.820979635442882 12.232704137024283 0 0 0
256 1 7.581047942357868 1.510529598257872 13.028546123318348 0 0 0
249 1 7.5242125092977785 2.663893575818923 12.219589827332191 0 0 0
434 1 9.996532570063597 1.519928815172111 13.068345855168884 0 0 0
389 1 11.153649666998028 1.5633840143653135 0.3809548495353319 0 0 0
448 1 12.393903494767503 1.580214615423209 13.016084669138882 0 0 0
50 1 0.3943496377480713 1.5732221113726117 13.003965137528787 0 0 0
113 1 14.66414011600403 5.165935311107538 12.198208521000621 -1 0 0
58 1 2.742985686670543 3.9462024957864985 13.082214208139916 0 0 0
248 1 5.031852622074249 3.999026277321387 13.018444345336826 0 0 0
305 1 5.216336320364246 5.150568476439854 12.18757815869511 0 0 0
250 1 7.530999538135008 4.020011909425801 12.954469027068816 0 0 0
319 1 7.576389425152931 5.1699770750823 12.21752994614302 0 0 0
439 1 9.992012777199776 2.7029555528648936 12.354865613075418 0 0 0
440 1 9.940446876728856 4.001693970392649 13.091471667817638 0 0 0
497 1 9.959967595745397 5.198937296525611 12.252483488479657 0 0 0
441 1 12.349617693343731 2.817985256540779 12.157903208716633 0 0 0
442 1 12.42208687551594 3.9523057186031796 13.03720427776612 0 0 0
511 1 12.31208736071568 5.117939207703954 12.23595218415556 0 0 0
397 1 13.580359389089583 3.9291868552176292 0.38678363194838283 0 0 0
56 1 14.699805188113288 3.9894655038948943 13.008121507570499 -1 0 0
114 1 14.682227095673507 6.381818877695891 13.060276392471724 -1 0 0
67 1 4.046912809942382 6.283677371610997 13.853385016222257 0 0 -1
127 1 2.7689051429727605 5.085579539696135 12.248167136083353 0 0 0
128 1 2.699856062703918 6.29708096776449 13.042927979868082 0 0 0
121 1 2.6961812108957366 7.513609437339641 12.28199344114996 0 0 0
261 1 6.350592206027124 6.301662139439286 0.41925460839411777 0 0 0
306 1 5.263018178746762 6.341911697729714 13.009712982692745 0 0 0
311 1 5.124618874010036 7.529712248982934 12.184016601998213 0 0 0
320 1 7.48805528518152 6.358018971768284 13.101999700712156 0 0 0
313 1 7.615696672083112 7.5213957770246616 12.250097870052233 0 0 0
259 1 8.743654559930047 6.3015523011483445 0.37008564510165165 0 0 0
498 1 9.919980603357683 6.39166624367426 13.078430104665399 0 0 0
503 1 9.977023925895857 7.560964610953255 12.267634047871356 0 0 0
512 1 12.396943191651133 6.337149920940621 13.144805232711384 0 0 0
505 1 12.34481321920282 7.5709170930302765 12.216667059970579 0 0 0
451 1 13.527163022538922 6.283341302116968 0.4565256109694591 0 0 0
120 1 0.41745344359402614 8.725992074374549 13.067720908416106 0 0 0
122 1 2.730446740910911 8.81064915449533 13.079093021028203 0 0 0
191 1 2.6658143079171808 9.986636006160143 12.22237397223634 0 0 0
312 1 5.1502883526968 8.74171929272688 13.02729508293423 0 0 0
314 1 7.648513559360532 8.704679333521327 13.06860554632935 0 0 0
383 1 7.55926562962635 9.942994791188159 12.252385561218029 0 0 0
269 1 8.754927423156722 8.76610617737143 0.42168487367332297 0 0 0
504 1 9.923453705947892 8.767083452031482 13.061036727977791 0 0 0
459 1 11.18450689155803 8.810815176641714 0.4239304637292758 0 0 0
506 1 12.280518807300368 8.822000287943919 13.045495989277914 0 0 0
575 1 12.28627718453232 10.013259245336865 12.143980416232182 0 0 0
119 1 14.675560815221615 7.535884792508051 12.200292679434424 -1 0 0
177 1 14.723128759680346 9.917663021843993 12.266709902730751 -1 0 0
133 1 1.494980878673006 11.173932721481375 0.37475386580230996 0 0 0
192 1 2.718987507294707 11.124566821379293 13.092717601945116 0 0 0
369 1 5.099713242320243 10.01366912645442 12.15153687609309 0 0 0
370 1 5.154122639993912 11.112941900627568 13.006872352058107 0 0 0
375 1 5.213817984702448 12.331242039724046 12.183562671315372 0 0 0
384 1 7.5673442952170005 11.166018554375835 12.942974633534988 0 0 0
561 1 9.922995636681325 9.931595878870883 12.175047177806238 0 0 0
562 1 9.95295275321498 11.174556737905355 12.898817241834573 0 0 0
576 1 12.341740590938567 11.224063081089948 13.025400925442916 0 0 0
515 1 13.446397825331488 11.188356389596347 13.827632560765293 0 0 -1
178 1 14.69470087703245 11.156797181001206 13.059437115511168 -1 0 0
183 1 0.4031992846913385 12.32295823593747 12.214085786132136 0 0 0
184 1 0.40888789505263057 13.609738751269251 12.931086883477924 0 0 0
63 1 2.7434117114691237 14.659928929618907 12.265514220510626 0 -1 0
185 1 2.7941924107945084 12.289407250003645 12.148288955158847 0 0 0
186 1 2.7200366483158724 13.504699183157406 13.018247721807438 0 0 0
241 1 5.172028081577917 14.733082711920897 12.166931503722536 0 -1 0
376 1 5.173296516293497 13.564095254626078 13.047215167141283 0 0 0
255 1 7.4855839482499515 14.733866737505124 12.128380525551504 0 -1 0
377 1 7.591937083016498 12.278873303398338 12.161743125116285 0 0 0
378 1 7.468206103676242 13.53744646906608 12.953549156582413 0 0 0
333 1 8.69582114310629 13.52762878617271 13.81330748520812 0 0 -1
433 1 9.915548461287337 0.38940499368387194 12.216278827245038 0 0 0
567 1 9.842135309853408 12.37684747646177 12.106435267132769 0 0 0
568 1 9.858589596508342 13.530244178131095 12.993277854425463 0 0 0
447 1 12.379452684516998 0.45071462700123277 12.100280157064976 0 0 0
569 1 12.258510453779675 12.378008927788159 12.181473485108281 0 0 0
570 1 12.292846544000678 13.637571168615938 12.908997536063628 0 0 0
525 1 13.499797040524744 13.479675198004468 13.79998669810427 0 0 -1

Velocities

6 -23.546417881323425 19.549584648959083 17.077092641039407
3 -2.7706026534512245 5.051920718295312 5.787226677053623
9 -12.107702724082177 9.161028807365282 7.993884604429678
193 -14.96922021432625 -21.579430421065023 0.35802233297671676
204 6.699894255507203 14.439366672785079 -14.542204159110423
207 -8.489639830805745 1.0739007002721088 -4.189964024022988
195 7.602298864151291 -3.06324083081593 3.864096504004111
196 8.069188922541455 -13.036041054517366 -9.660784614627513
387 26.92413724575813 -2.6730619482702402 4.827580485144308
11 -16.425386438887692 2.882653075521339 0.1143521693349566
76 -9.67705128501032 -1.5361715968730933 10.851051409444258
4 23.447871648985192 19.42537829879265 -4.059860688971115
13 -11.094053919521174 -2.322447910339831 7.037659920596103
198 -1.022954967619053 -2.020378023408805 17.93151640988966
199 -21.528211936184057 15.69246613681316 12.654013583077127
203 14.004790210405142 -4.551836157091114 -16.863247282885588
257 -15.655777900104804 10.507572123948703 -1.7549555919033184
201 -1.5223917811753545 10.574067680213407 -10.992306738240691
205 1.2479613404393335 6.5697878470908595 16.82778397276927
391 -14.091796473131541 6.068999192789811 -22.29572427142036
390 1.398384277406492 9.531071205222768 10.710534366913283
393 -14.625536660318918 19.600484759205017 -3.7238863677469656
395 -8.951204742242012 8.71422808039837 0.8741398059796319
460 1.2257314571160518 19.11997020503065 9.061566113418099
7 -10.98984225754392 14.674926023615603 -8.748160463031473
388 0.8883446954244383 -3.0923211712333143 -5.6494451299448905
69 -19.42155396338158 -1.3227027714974227 -0.9929634245030867
78 -8.272190808849128 12.585576880539511 13.276886522758224
79 -3.327907201807143 -19.71774827840193 -3.6744584149095156
68 -5.06425861346651 -9.956787192282446 4.037206828528464
268 -2.48239868418302 -4.01441187095788 -1.2847691553145393
262 20.21020284569542 9.079837414598455 5.213992244746483
271 9.253599173463286 -4.44523988075348 2.6793428187447694
270 1.708608813939682 -16.522933381522158 1.3808141698069485
449 -4.750082833308305 5.680663249043866 17.324146518912077
260 -13.608195649797945 -8.926384689542807 14.173791309636401
455 13.502248283439984 -8.095913163333513 12.228439904529054
453 -18.613011755087857 -3.4382634505023155 6.071928011112118
463 4.995374040021646 -1.9326870372374345 -11.172450873733888
457 0.020420183993597758 14.603594202520922 -9.238521963250637
65 -3.4487469789195315 -11.803124340379028 -4.244635351641156
462 23.351759582158177 4.0215405753753855 3.9052848498960926
452 -16.5033164114287 -4.05607864426453 -17.647178493099073
70 5.435399776302699 -6.622329924179063 -7.008962725683932
75 -7.394018259647443 12.635914792232544 -12.516788512397534
129 -6.201471026529358 0.8030792501672341 -10.687331090057752
140 -0.12414415308844763 -13.703660911481013 2.742539819848244
73 -2.775517090319754 -1.4672993817098547 3.3562330600394357
77 -0.5256024333370307 7.494081303638319 -23.005992530922978
142 -2.1412394989261085 -12.386281367409218 -0.407172070297059
143 20.058607209202236 -5.243168102051559 19.347118126754495
263 9.794848999961824 10.414092730780625 -14.128986479034156
267 -6.7286394654083885 9.221835061406255 0.3684383385611813
332 4.244424910979401 -19.850375973477245 12.339683791704443
265 10.09039042194745 -13.150072786173972 -4.079152847151776
335 11.455796445866739 -6.47095356305431 -0.7132706339615406
334 4.352969622518869 11.178884170407862 3.3691310309635543
513 8.632097435953208 5.028325841757801 -5.123465459191884
454 10.973954936260725 -2.4445877765420185 12.075190114708173
524 -19.96399106085228 -1.8973529865371845 -4.848120168560561
527 -2.086875279974017 3.0288392197875287 0.7086024687388112
71 -2.5127620555114127 -9.043442500123296 -7.620526838063435
461 6.6301838748067405 -2.2946538505858314 5.202419277120415
134 0.9840671953583979 10.903040191028396 -21.408723780757946
135 -1.3887188210293684 -17.72717892518048 4.5018626907072985
131 -3.9374680309005274 -3.2934910621597635 0.39394401256277417
132 -1.505460053283446 -6.573890265752863 7.52617426829114
137 14.307049141843127 4.5407457870663 -24.732311039779603
321 5.5911677447660875 -6.246120725522408 4.152703056714565
325 6.257940860323695 -7.095316332461682 -2.9747290292476136
326 9.878219779377032 2.7344032931527753 -1.9493864602716546
327 6.5172148033776915 -1.1417063447486933 6.927200868756641
323 6.970726276259058 -2.0858193423856917 12.491989411903132
517 6.553992314296747 -8.928630702348116 -12.293577214290456
521 1.3315533813031395 -11.09080826214831 7.920237574655384
526 -12.21026945300658 -7.815789993451887 -8.96353103413091
516 -7.179130255281539 3.2727706590186014 -5.158121103590432
12 -6.666208459932667 -0.5030754445065425 -6.502902111942459
139 3.1512689254195614 8.627871526149312 4.225923435335721
14 4.599339911431803 11.008759219642906 -6.64880147821046
15 11.179174592170193 10.661336181448272 -17.77541483022569
141 -13.664325567180587 0.2487651439597734 -2.812755615928137
331 3.629567005834937 -4.970271187403128 -25.3017955912169
329 -1.3121093003623716 8.167694267407558 14.001061130038646
206 -11.960308084633281 5.449736080554756 -8.278014772643278
385 7.406066091341384 -8.116183467723467 1.2414916590257097
324 13.617413072304476 -13.851304969522001 7.557036434253867
519 6.675600494277316 -11.170694008722752 -3.973659811254969
396 -9.69064013127063 -2.002025226382365 6.2173300870648704
399 -7.671698511685118 7.239610451637788 1.2478511826157264
518 -14.59938367632875 -2.2091767398453244 4.9639912521432725
523 -10.897062694830899 1.059747744841441 14.852679952861267
1 8.07413451639754 -6.8452310027415715 8.72782711457812
398 2.7061365459207174 8.63819897405161 1.2667334275537858
21 7.361801209749289 -12.95461032246338 13.606521037948943
28 -6.081452468382226 6.270004337800257 5.026300683981471
16 7.732763332268806 -10.27100151402928 1.1967554172374562
19 -20.225616794939036 -1.7238246905333148 -2.3132829843851184
30 1.5571317305899122 -4.23722433198231 18.071782631689103
194 4.452974528486585 5.109321864888133 5.921656667355438
213 -10.80257411786556 5.285651523762861 5.682932975287785
214 -10.89404550997904 -0.45253443328559795 -1.618880908361289
208 -9.10514990422127 10.299075571494138 -2.1992510433394408
211 -1.2024351614322835 -11.035740984615593 -15.957346951803839
386 1.4399050149561605 -3.4552237267818584 8.256463427333744
212 -3.6336978031067417 3.449664202333313 -3.4512626173431995
400 -7.799916406886895 4.607296955178087 -24.608746024732152
405 9.975938380453675 -17.33216385548855 14.287121022802939
2 -1.124202744676167 6.534598332210487 7.509728142350253
403 0.8536083816536348 -8.734360478002502 12.082000667825818
8 2.4149311401757942 -0.278436642351626 -8.441627016818106
22 -11.29712572681092 -7.709379087493711 -9.802691224322075
27 7.391394937608839 -10.074701271913355 -20.288997521022765
92 -13.01831049020518 21.1694078993767 3.668526885587107
10 -2.848827910244334 3.910763335472628 -13.415062236731343
20 11.526856050138091 -3.325733719927851 -2.5911297343248116
29 -15.707170525879397 -0.34884893906011094 -0.21482825290279328
94 5.224616636257442 -4.634391434940855 0.05929835800305548
200 -0.8144357245812758 2.7143534457595115 -10.138995260603593
219 -6.774933803675046 -1.599216681698726 -5.739615274081735
202 1.6242596397145945 -9.250070102006179 15.658047496869958
221 -13.455988031922914 13.33347764484197 4.986579096131877
392 3.4672234016707053 -0.8132529731947657 0.2600955036894571
286 0.582247539398134 1.4207930270695963 5.248156009527122
394 -14.569423126457194 7.041274640657692 -5.714049093090405
406 -2.3943146858251603 -3.0000482318818045 -4.478961170927619
411 -7.148414838514801 -4.988238472405369 -4.996746682589016
404 19.035528856434993 5.817369164207729 11.65524269165815
413 -1.7193023956911924 12.515331526801674 -12.602378522734844
66 -9.112760719244356 5.214376117622664 7.222422427488014
85 -1.7030262420573143 5.265581586074308 0.8674992415387957
80 -12.962754230957014 4.789732655686457 5.587016736332632
83 -9.75401910210702 13.688438428426485 6.519221666491189
258 5.357665602769685 14.279345304586435 1.2096844335351766
277 -4.96821192703072 13.762114555723858 -7.707537278094376
284 2.3962891160544864 1.7693947137351091 7.415682714273437
278 -2.59116913900957 7.343089535253229 10.669337010716163
272 2.0368925880645623 -23.514864856388098 -12.638655850622929
275 6.2238737902651575 9.662974842416341 -13.179016105164331
450 11.432713669555186 -23.392300898273344 11.93890208993792
464 -0.21946710976617195 3.6234198252181753 -11.863667355813044
469 0.3365001431833782 -4.230198723030878 7.089843992008937
476 -8.807178725060785 -16.660272650446284 -1.0259612690574431
467 9.833963782954786 -2.681522324716887 -6.536160407106392
478 -0.22094973203068607 3.545414030751031 9.110598118983082
468 -5.920659941470804 -5.489740491980048 -1.8380075596707377
86 1.6702833723177046 14.983615950989464 13.273484192890072
72 10.995215468766489 1.7475176722135446 -6.834397502333812
91 -2.5891935038419067 1.9652957890385592 18.51280560399255
84 2.498091175833168 6.872098279828792 1.5943382202849914
74 5.860487496247076 -3.329600404462991 -6.015338714951275
93 -3.10220805893761 11.257424225974198 5.950315691048895
264 13.432884796889057 22.67644789247638 -10.167504169467586
283 -0.5224146784204142 -0.7564476360628059 -7.006178889642609
348 8.79128403279499 -1.8691134341341045 -11.180982957291322
266 -10.132618727761086 -10.527742006519883 -5.553185869382797
276 -3.2523683224557938 12.917419936825615 -7.900180027932206
285 8.5588887485516 -4.917541653645206 2.4176685026035365
456 -0.658576527432875 -0.03318787445311636 -7.112589967693311
470 -5.850174302394962 0.7124047867497824 4.763607784146875
458 2.870392820842774 18.03064536995 6.5572712134578435
475 -1.4684607220760622 -15.514704454995988 -5.941555646541178
477 23.579612964933414 12.848173961058519 4.477375716745438
156 6.011533675039758 -8.361107908946146 9.468377689887577
149 11.98638820211812 1.98191295466973 -3.734859626580479
158 -8.792866630944992 5.702425132970148 -9.790428008543829
144 15.05543550000034 10.187790048905011 6.9184623960667615
147 2.212462977834675 5.401444672620357 10.894106858015723
322 -1.406777427463489 -2.641186751704216 3.3388791885997064
341 10.94392490074427 15.21364317697469 5.216932557846435
342 -5.51675887741766 -8.1248439658053 -5.021377593012735
336 -2.3808152374299314 -0.12312977205926853 -4.676871048023449
350 -2.4796559254647574 9.291913872811284 21.836322674118573
339 -4.014194153795811 2.8510588657253373 21.92741362368773
514 0.5092460808170292 -3.871602225160401 4.2558346079134255
540 14.146866917324642 4.165673749999521 -5.841192491207068
528 8.23369094410374 -8.585382955665686 -2.0476956053788635
533 -0.6503059090061043 -1.4634584415294183 -4.142364171714401
534 5.652388329864343 -3.1608149143629416 13.260628948479376
542 7.5245662508168705 -10.4772581292712 -6.904619105364179
130 -5.307730152578633 -13.248742244504605 -0.6672670783530481
531 -6.956642424193855 3.3796593041401564 -5.889656423914965
532 -3.6671965099732833 2.0274840986179843 -8.78750728296795
150 -12.920669134095082 2.8964474089472034 0.4383559567461172
155 4.876746012237071 -3.5426266136193267 5.146046220060941
148 -9.14187052104833 2.727443883303225 2.2617562053549176
138 11.283034918301027 -0.5325336048066401 16.47810364610968
157 10.163396187566876 6.159359556772562 4.1290746119185355
220 -5.168098018688419 10.102545802451713 -4.720270035749414
328 -13.448323465669505 1.9317036485016688 -5.881749323497373
347 0.755994923356086 -3.0267863810081637 -17.1634214911294
330 -14.225971672523587 -9.519441861658644 -9.988586950546237
222 16.360206973982407 -9.363260274451248 22.489603152538134
340 -5.157321987877697 3.4819807955903874 -9.180811638699828
349 -2.6417433226619313 7.904935808797338 -0.32163603248438416
520 4.402800015299697 0.2893464408469095 12.171369669640498
412 9.51495773500046 0.74217705112828 -5.939680650733543
522 5.830932956066448 -1.2566755873119662 0.6682058178702146
539 1.5268580160800225 2.6308366943257204 -26.864073524121377
414 18.367431843042148 0.38324491447084824 8.517259317987827
136 -6.023602959045653 -1.610557865106654 -10.564097847350226
541 -1.7935032752797326 5.84116977279349 1.9904120217610528
32 -7.19218581936925 -3.2072758114104034 -6.447960563679139
25 5.770628576596018 3.902232332497809 16.98679304433844
35 11.278132476020188 -4.829035536648834 -3.3563715422494993
210 -6.465180178796678 13.054016147992915 -4.017472238873173
215 8.918146773320764 -11.517494518098944 -6.752744630215311
223 -0.9996830449120551 -15.84788041353445 12.37218875062599
224 4.572326447973331 7.258025628150065 -3.4682124145896323
402 -7.901695620675705 -2.782886718535534 -2.2689009695752738
407 -12.315282831453318 -16.0184453860567 1.6748130111938226
415 -12.99040375044628 -2.6648814302493364 -2.6370607596491817
416 -13.254017825924107 2.7634990711949015 0.5013222978281955
409 3.6154372849136416 -10.746403890431369 2.6107066793468126
421 -7.801575196985021 5.534183695494688 14.226942107974555
17 1.9805091135856 7.920581531839213 -4.789966317567431
18 -5.548569586507818 3.0370014237395155 -7.344748601617697
24 5.960572648751505 4.089040314928356 15.13314481389577
81 -15.787645118595929 -3.558567184546701 13.28349490780033
26 -15.393076083317377 -7.834109034014251 -0.9124896069354623
45 7.168054571073176 5.636307838249489 -18.15350976038718
216 12.372453931666046 -10.398578461322549 2.257782195604645
273 -4.085922701890859 -4.720813265725275 -10.999871144099332
235 -19.51604170047222 6.919064981707715 21.488005437009868
217 10.706178881696864 -2.335977837913946 -9.716665091574765
218 -7.365947510543271 4.629199424195251 2.3946268289186534
408 -13.571569603657865 -13.717396568778717 1.6221465700883244
410 -20.94029660959241 6.784077255199679 17.96245571141784
427 -16.79587123819042 4.183812304573944 7.47637483179048
23 -2.8964492449039763 -3.295879169869506 6.168415349749994
82 3.8953170540087902 2.58672097767847 -12.964055899422288
101 6.659742726900271 2.9556068915400107 -13.472149142398735
95 -2.598755311604165 2.7061897320837667 -22.544366712123413
96 -22.063831795076872 -7.319964375228425 -2.243595950240201
99 9.25723647220942 -0.8627329514088591 5.955010053556013
274 -6.419349717759315 1.6082498666500047 -5.128629723346457
279 8.33071249166663 -10.311655261272648 8.701650902176242
287 16.93193235590261 0.7509163994404203 -1.6013378648287488
288 -17.59420892210894 -2.512350875658572 -26.310461534710008
465 14.286361946159872 -19.12033850878959 2.480232291293984
466 31.66289252965039 2.73371782157701 16.324141622806778
291 9.809041702977384 5.338762741136432 -4.711261514509913
479 -4.396349180773757 -7.089934265520081 -25.971242903058407
480 3.942394318292551 3.3217553426548747 19.93294606317485
485 -4.78750458262436 -4.944257542670051 5.0732450760086305
87 -8.366548271185875 -2.1314966292781614 -4.170865228574405
107 11.041956862444554 -1.8189408907313227 -5.818009014212407
89 22.41539180468884 -6.87199257931282 18.09571334590951
90 -5.051576412336151 -3.8613110947789706 -10.592547453583174
159 4.587703035437214 8.303260327662965 -20.568977956803902
109 -19.226433417267575 24.197893342522875 18.038310248828704
280 0.8116028779808465 5.825850677734208 7.875399605645186
281 -3.443581064731405 9.250431389119177 -2.1324376037408217
282 -17.73826395792121 -3.3444565330271785 2.731412539959498
471 15.855937727609048 1.6879136433505526 3.5494013699064197
472 7.899670055337071 -16.884388462778908 -7.909587104483226
473 -3.720486123237391 9.205024309550486 -11.477794134262375
474 4.122108585305272 7.246530308432738 1.3989349500515884
88 -9.865640885893935 -0.9255035673838417 15.05795027603811
160 -6.411408419526014 -22.349990109870067 11.205659147163368
163 -5.464360063113161 11.617356598877803 -20.915218486540077
337 23.493358124172005 -6.029348576613191 0.6824512749420678
338 -8.52122474132785 0.4983062527301336 -12.051294539163385
343 -12.959742569775955 8.16465709422784 2.126592105372009
351 17.103982933053064 -4.379501309448705 -3.1156583516461516
352 7.8719306372324915 -10.021608723189178 2.1496994937086367
529 -12.206118406570699 -2.675749207231472 -8.91653531209982
530 -2.0504323613958775 1.3511157757310546 10.065481414898265
355 9.3830421072002 0.1668741704176703 7.1472476744239986
543 14.63419554728084 4.803071898909629 2.9338977122846677
537 17.928078226821807 -14.885303566365588 -5.15539591408634
544 10.843375965172708 -4.824981800588526 1.8258350572024151
549 -3.281858910460547 0.2526322821588725 -0.4017267574852248
145 4.39390044368308 -7.755937311141594 -9.665320311354026
146 5.872600279910934 -7.576887748786867 15.984320736911663
171 4.278770740916226 4.712278741854607 11.266282341066871
31 -12.735914628624124 2.077442095986121 -9.890593219082229
153 -13.588763725652512 0.1944366671545339 3.0781414055424303
154 -15.309100207819352 -10.853451292137992 -12.233740679795932
173 14.036939339305722 3.5041566482710325 0.8859263564679045
209 7.365530766666948 -6.893747295106103 -10.61862978798251
344 18.556183812930204 -13.12304949052809 -20.843444354968426
363 15.537864168253039 -3.7263716645689056 12.841023069122508
345 -9.767897478156684 8.30468772619919 -8.841495474313877
346 -3.6089907180163845 -15.000609846964208 -4.648792165247831
401 3.5894722872043836 -14.614750449772908 -18.55718960108159
535 9.900260525127628 -14.271055979504847 -0.9135727830164947
536 -7.4079642908842445 13.358607048572384 10.355321266863717
365 -4.480275463512195 -1.1703522529169332 17.981554832892346
538 2.2983516917997746 2.4404896086358407 -3.432419601098416
555 15.908592341261665 -8.117186159631476 -2.0720319713550777
151 -17.203527131121373 -1.3605837190450938 -1.666444123763854
152 -9.047088737775244 8.970450154458904 -0.6847172774193224
557 8.203896947795007 -9.812252168481571 -5.228506856624467
37 -7.64787185552226 -9.371286488400093 -5.5555185716752735
38 -12.406692469208991 9.837746181862949 -21.549861400626206
41 2.5752805945245374 -7.278956762669428 1.3600001351051167
225 -2.16698831554971 -2.079793596783073 -14.151910818662058
229 9.388835684747662 -7.43697935227406 -0.21477372173812562
239 -5.481273582836222 -10.691560001487725 13.134895678502794
227 -11.734864610350439 -3.8153478561960616 3.7635697535383397
238 -13.969419818903345 5.699521856107812 -2.021483121610956
423 -4.069596831969791 -1.1187267557555793 -15.82985229297557
425 -10.421587936332973 -7.078672464275216 10.575288853597414
33 3.1023418900394177 15.551250655085221 -9.813296837720193
419 0.04323817703377047 -3.677361520274015 17.773155493703552
39 11.931475670876104 -6.563005737919131 2.791767525203578
43 -1.0905528423026682 0.10488284703963872 -0.2364525127682479
36 -2.2995172965530255 22.3094770239863 6.503215295638316
110 3.0568953069087885 2.542906965632404 25.763853366784804
230 13.037014833722118 -4.70266174634103 0.09098214510760005
231 29.977782622240312 18.830209974324507 15.77532696421917
289 -4.425136832213255 29.47209343256536 -17.70928162030624
300 8.395929313921979 0.36471598274661293 8.397837586022735
233 13.030312820342644 -4.187447875749018 8.756751015692277
303 -12.254888949291388 16.738007074560077 8.70849931234889
228 7.942864171088213 -12.605852076443622 -8.941142841889697
237 -7.185887313001267 -18.800435972808657 -4.903173004458857
481 2.8134587656332726 -8.01744593207328 3.2392282000211727
422 -7.479030035908035 -6.337702652002669 -16.010398636191876
492 4.402113048332892 -3.847231984981215 17.878886656389902
495 -0.886317024435849 3.565331212632115 -14.03189818393859
420 -6.677621373329666 -3.7327537582570502 1.8479241024633122
429 3.2529463810164105 -4.990434204052879 0.19949158957316382
97 -7.619802624320645 2.0418392754456742 3.648789046740526
108 3.100306448736569 -2.715148331095783 0.021681208517258875
103 4.574264522939092 4.580489119561891 12.184846861063594
111 -4.395912614838734 7.349711122115434 -21.85442765045704
293 -3.105390407891089 5.827457022692494 -14.52807129978731
294 -8.466556618904702 6.662801383473626 -6.005083531448908
295 14.170850901891031 1.4910634201143882 10.897184915360686
297 1.5806575151291722 13.770767113521881 0.8582799329715831
302 2.980943104111775 -10.167436115447444 -22.826083222492358
292 1.8369100410490002 7.412215658743467 18.929492392785495
487 -2.9679512870061067 -12.715739435994955 -7.8094138650313845
486 3.201456614178039 -1.6508770924413552 -2.9873912560002873
483 6.802082635938721 -1.4320270704159714 0.23034642285404833
494 -2.083804381758801 -9.24963165355597 14.048087016199883
102 -4.626154680710426 14.885148849366258 -5.056251546160142
161 6.359081695973786 -10.724593422754495 -18.228211573946353
172 20.354721233332313 3.2458511976472746 15.026783533019557
100 -9.636098904545534 15.139328961949548 -16.312332175992445
105 -0.8626419857089723 2.9469956291865658 9.150153708627512
299 -9.381938426030441 10.550597797225485 -14.130774794159397
367 -8.273806592991159 7.409751996299748 -1.213190255708173
301 -0.20217427196247975 7.457601384981909 -13.70222093742551
489 -0.2569908843168852 13.090777321504236 -21.619891393245275
491 -4.032402412836853 -0.7054391565154324 -1.8512515239755551
484 5.622211603126561 -5.776401986300848 3.9706251639384664
493 4.799119997022452 5.342658783245474 5.151330965992551
558 14.98307639219165 -2.5043837108296803 14.213994330045105
165 0.6488461567177626 9.026592529020597 -4.477548203832221
174 -4.643748802144176 -4.709288556047839 15.763136176345002
175 -10.954256305035505 2.9583810190535695 -1.9885033448761624
164 -4.172913774792506 5.161275252651314 4.211624615229035
169 -17.393968380485028 7.332418899865563 -14.244231487797574
353 -4.267582162875745 22.100566899880597 9.001025365490305
364 7.6146523200438 -10.186391936833022 9.9705368075059
357 0.02877517773527482 6.999989416412596 -14.212901198694269
361 -11.061370144944064 -7.083382690840558 13.44855368527346
366 -8.955517359052601 16.454929620705002 7.565811262408937
545 -15.99400274181172 15.803354575072737 18.863199560956076
551 3.5172654467303945 -5.4109165790699 -8.588507297230334
556 3.5400484471593288 -6.31708786208675 -5.1557711483843995
559 -11.903753153491374 38.13867609302865 7.726102926690622
550 19.69057904209998 -6.5065430147102985 3.205973765236583
547 -4.940492344951084 -12.336677168238719 -9.897923570592319
167 -9.90716238279697 -13.364825858258245 8.343171942175383
44 -8.142953328828122 -15.769740506603805 6.161564497695271
166 31.654572183336867 12.545810392552339 0.426881720225203
46 -11.92281794129231 -6.401344466378859 -3.9180514583621195
47 -6.4001435248811305 -5.632860536807659 5.720272497287705
236 12.59752182209432 -0.738038172891336 -0.19948895096431318
358 -11.6991207934826 -1.8182440467816723 15.077287487283593
359 -4.0714437059344295 -7.6327901231084585 18.671375526119835
417 8.570989141567672 14.256697181592022 -10.232140243440512
356 4.692308746348565 -11.15882077516833 6.099021109415623
428 -13.756923851464089 8.07514391814319 -5.423165526250781
431 -4.01633478859533 0.6253030936178369 1.7237969480452855
553 8.609122017064351 -8.864846307914709 10.21285310246445
430 -3.0306635871428056 -10.449468632770554 3.526739059395259
548 3.076984882070697 -1.205447834776771 -2.1894510193552317
53 -3.197833217324084 12.41138506189625 -12.119170373868561
60 -10.88858483194178 -5.091637417174296 -4.027545943230833
54 -2.3821185274628345 6.820062504291591 8.94031234335938
48 12.44655377923051 -12.298035947555503 -13.398747675205787
51 -9.64761721209695 24.887636221460944 -18.966042612482806
52 -3.2846799168664047 9.392609481019468 3.4246557332651504
226 1.3487919114956608 -7.849559495119272 -10.543134892650052
245 6.363848293979563 -5.2373182205264746 -18.675220964841312
246 7.429579904161283 16.584541193953324 -2.1676747089136
240 4.88245003730997 -8.410533804727388 -18.468158187502908
243 -25.371848408120798 -4.554038470771155 -2.1399946738374775
254 -2.1636833021012296 8.018690502383018 13.501519321886045
418 -20.158945090491333 -8.648473848804256 3.092384723955049
432 18.081561086337715 10.03601900265746 2.2649731107255837
437 -5.916153567912718 10.398234734906342 12.953795998910614
438 -10.073647128167204 12.744570057162761 -9.509799086293528
34 11.287738988977633 9.028584010924108 8.679557170573922
435 8.289571761779898 1.3407121245323421 14.273247748360651
446 0.5082966971029286 22.821159640973686 0.15613507232030788
40 1.2109334852640519 5.1639204510355174 -10.126186979495877
59 -11.52008801135388 -10.36921146266251 5.612657863751143
124 -9.165632144344674 6.021191449955997 -6.829125430551336
42 5.099429966224311 -7.77654586590496 4.443134189649393
61 0.3403211436402251 -0.6178432474227133 -15.308145050858924
126 24.494263175873495 -9.349722633998939 -8.997813150074558
232 18.41493998042048 -2.387983164559163 3.881076927182403
251 -3.3926097910853827 -4.1490849395475005 -1.1992508465450913
316 -14.070594013658042 19.289626335028778 -10.527855171026486
234 14.76155993804916 7.052550325737109 5.5278950894722865
244 -22.10155387991256 12.299080519144027 -5.070152932570781
253 4.7865513419165095 -13.951861209184974 -3.885730030963648
424 10.593940941285588 -4.078584701474815 6.0128015912342985
318 22.117996356522568 -4.473659911237199 -1.8660826130584547
426 -3.8770268358213684 0.5855415868077641 1.239828565354123
443 7.319273951129181 -1.2364259076522532 -2.2798620437173147
508 15.305407661309093 -7.190492990331266 15.613663636101958
436 -0.2857633506570553 7.1100928057742125 17.84710527843775
445 4.534065048339675 5.600704714548391 -13.978430156104325
117 -1.4236968097883016 -11.858902620950332 2.9041117034529633
118 4.640872962684394 -8.867580068442896 9.529373250047154
112 -5.776238309848942 -3.487242233649696 7.336915828797299
115 2.3015272363178054 -14.948620560773458 8.944316388646603
290 15.878009082206692 7.756218749018629 9.946160602817548
309 5.898043005527015 24.05993539064679 -6.992614167536528
304 -5.458801946487674 4.2927119685413695 -1.49779756590127
307 15.72831127617773 -7.344071652900075 3.479605906835544
482 -9.210534666150378 2.0628372881415404 8.92151501820558
308 -20.13830273508056 -3.6492586246890863 -3.433548085484887
496 -3.4809359430745856 -5.240527137175236 9.23973331956513
501 -4.129619253716402 -3.0614334403889125 4.6520644406316825
502 2.5877389081176925 -10.17413718515103 -3.13328009103159
98 -10.481880780934604 -4.865914274210276 -25.71546832927812
499 -7.906966713021178 0.2392286899854543 7.817165857204607
510 7.305540296903257 1.870927943142155 0.652835132702725
104 23.561684005236376 0.08700966713740954 5.569225071816653
123 -9.148460112167262 7.971892177350267 9.06586041492218
116 -8.511533454288644 -9.347422845643074 11.542097478316775
106 3.6981663918202847 -9.398283102100658 8.663529150556057
125 -5.241690485648473 14.811026525352313 19.247964539297993
310 -8.517867231658228 -2.229192614127132 -13.251593082284717
296 14.557930383755629 -4.173964366928333 6.168818265540062
315 -7.600680883425783 -13.203192056092176 -14.583298920208488
298 2.1370900886179176 5.228914676134772 7.642787512927036
317 9.25310210609088 20.709381613600737 13.622284155101715
382 -5.222048814431874 -2.3654163789668314 9.819912071857823
488 2.4965310289934686 8.410797670640118 5.369407346884766
490 13.400941175623148 -1.4810444399454423 -12.298209317217283
507 -7.011727349177244 -1.914857571895607 -17.806086189497382
500 -13.98152959620596 -18.388629179959924 -16.13822104685234
509 -4.605038071515185 -5.872790375797333 -4.7278447624469395
188 -1.4988059376627263 4.65418719514965 -7.238873444656431
162 -0.8770466981387905 -8.659838726357924 -8.932268475693064
181 -3.70703407807657 6.4451934239007365 -2.2373770127415953
190 8.021601069938662 -6.409441222943409 -6.466856374107743
176 7.680301580195762 4.154439627308924 18.998438096730535
179 10.346645982713317 -0.8850677819268109 7.655930311329849
380 9.869108635712161 -20.0818358469412 -16.332759633429934
354 -4.065948285837559 10.402448635529305 -0.16428713303159798
373 13.801559038311236 8.31360904580841 4.379983312283429
374 0.5993714447665338 1.4552933355221411 -2.5227009328641548
368 1.54236083454835 5.05672643745317 -10.429944229779956
371 4.9408413746436946 2.755832881693779 -4.30949923362724
372 -4.597002495717072 7.187903623932323 1.29978130419906
546 0.9744283093675854 15.529437350956812 4.937272479985006
572 10.736102745802361 -14.803782628798771 -7.553057990810566
560 -9.605336533904282 -3.1705450604001126 -10.282240871535627
565 -2.6145973599338617 5.018847478831516 3.9348736852385056
574 -16.043203836068106 5.593216942384573 -14.965128901314229
563 -5.870121602947566 19.109338046820117 -13.890114080356017
182 0.08916272044771646 1.3036436412768986 -1.3219252877094627
187 16.725228868268797 -6.941600743272379 2.47960324463403
62 -26.123378011864183 3.6592793740906195 -0.9285321076319587
180 -2.1511365264870963 -4.588069046888051 10.634837602336784
170 -9.948557609463123 -14.8394057555625 14.538246830940967
189 -2.15022856764082 17.481505764572805 18.85495050955229
252 -11.053109898100132 -6.442720501597866 -15.487211819090845
360 6.073169861198486 -5.988870902038442 -18.145636927514584
379 -17.371390056850867 -6.3111238777171215 -5.448443899371501
362 3.6661437466397713 8.36992253562813 -5.7472853017964
381 11.009962219811069 -1.00982932480312 19.329809097660657
552 -0.4625565395338291 -2.2215747417144165 11.926560426659128
444 -12.892749100036218 -2.501596024199083 -4.749014121604154
566 -7.2169668565804175 8.287341902158957 -3.482269352364681
554 10.84571243298469 -2.373095682478625 -2.036513804673441
571 0.5059539260101482 -1.291522315419094 15.66590176173611
564 11.255914636472358 14.693256302214944 9.24383945191826
168 4.796890539445991 -3.6021118215618237 -23.311273633451428
573 2.056657494291585 -5.846739633429978 2.407810510787661
5 -23.21731286846035 -4.117072715997294 3.0135165537776367
49 5.504742784365257 -0.9189999863032157 4.2371743934394885
55 -8.582879687418203 -3.5105042105513213 1.1961932671732227
64 5.364926171270285 -2.6280019017055634 3.274707505990141
57 2.59846290976481 12.347091796645655 4.838884178963784
197 -14.096720147655546 -20.75733067816361 -0.8872509838829991
242 4.886136822406325 -6.51792652256093 -11.902828573520903
247 10.989725317100588 -4.443156064824342 1.1016525800616994
256 -10.264695298941781 8.147970021310856 7.945711777880852
249 16.46346669337843 -10.083876117931935 10.618245462721786
434 -0.22387249390488995 -0.2125964686356634 0.05431143515696571
389 9.242316737654418 1.5843092620566268 4.196157733763896
448 0.704232711950499 -13.466380735839536 10.368547505257197
50 1.9286048977519183 -17.27208999915644 -3.6599298948434367
113 -1.380890398359272 -4.7889571714537675 0.8367248771211199
58 -21.84032200938638 9.72737476897886 -14.467007292341174
248 -9.60183531899559 16.40806255202516 -8.539686489933663
305 6.455761302040719 0.20160682707113686 -5.783699564599683
250 -2.27765334509685 -7.262199314701159 18.810422302439285
319 12.129534182760903 14.976857966423728 -11.950490930074064
439 -9.496213571407965 7.365682056707504 1.4678005728133363
440 5.49805281165769 -16.148736709291924 -1.4731293782919241
497 0.8599958552857645 -0.49892025215253144 -17.793370788632735
441 -4.70539399307182 0.9990150569918255 -28.496542679414897
442 -8.232836607201524 9.255677288834676 13.640223594961228
511 16.25559615891614 -11.215857146205972 -9.456788792602945
397 -2.6437687965848267 -0.4550516593184507 5.172340552312259
56 -8.207720723793765 4.495456455667274 6.5867223299525
114 -20.21882784659769 -1.7528965682288689 -28.15855328385862
67 10.923672670043999 -16.02907045851868 -7.236566954050012
127 5.86479931243882 18.139336994129824 13.431674041839152
128 12.767228042685142 -8.792347351149493 2.818258306775798
121 -1.8984538614865243 -12.935572572691747 11.251774399672584
261 9.271262345501817 4.860693851401953 11.72668441226628
306 -1.408233370203089 1.3549740187072616 16.59760316056007
311 5.137505427032746 12.879282404501001 -23.0038281998698
320 10.00092170725346 2.813135936932332 -1.319755458846193
313 -3.191045663369253 9.33097479817929 -13.64296353856412
259 6.685456082899476 -10.210182256381074 -16.284145969031975
498 -4.089306902517687 -6.769978595781694 -2.971759088728635
503 19.662475573978504 -4.237624337937154 9.127564353452858
512 11.969923066390544 -12.925960796349552 -2.0778005917491553
505 2.3154160990262764 -10.11714761746005 -4.15487485422201
451 -3.790941937862398 10.632060709161681 9.68336739534954
120 -2.1547814193096184 9.161758534967058 -3.132151650533632
122 -0.821608239672065 -2.1772696148066206 -1.7484097285710074
191 -8.608552117138471 -4.69242333509131 3.977804678704427
312 2.5835681282957226 -12.377637529928647 -8.51645651488492
314 -6.5041591050319125 -3.5132618720930306 -3.865788877978858
383 -16.734789563392727 -2.9523085245557863 -2.044590883630196
269 -3.057962921126463 3.2468152768352083 12.072886965514082
504 1.9034963523033632 10.349216246018855 10.088845840742984
459 11.344527959978127 -8.824318969764255 -4.184593798747102
506 -5.664268265916645 10.242207523970919 19.264415887180796
575 14.305842877219932 14.092164946704573 15.79610725971309
119 -5.035507093974198 -7.499815040969051 -6.86312312697774
177 9.694708185653651 -11.091502601921956 25.51563959356698
133 -1.3939451831974752 9.174074443882288 1.830565624503434
192 -1.9290545540898583 -6.770415839747665 -18.73475874734121
369 -0.6897141393129073 -1.623564691118952 18.32623248308869
370 16.53932680995752 -8.726287846667027 -0.2415255561368774
375 1.53920483623053 3.262194825689085 20.49164131130832
384 -4.255187975842481 -19.75807467885059 7.964220800313753
561 6.016163996448774 3.362983847731293 7.446779154554604
562 20.61250940672073 5.123905585084575 -10.089393376954645
576 -2.90745221698295 -5.902759555190806 -5.986408415824883
515 -3.2960468595797003 -2.197329950142583 17.200463864454843
178 -5.817151711313303 -6.168902102565587 -6.758087066534831
183 -13.63647822309194 -2.9286424312434165 -5.101554121634127
184 14.211146744008097 -0.7439702556943928 9.586797691359935
63 2.8138843632505846 1.7478202003927683 2.5013468044487936
185 -1.3411049603480847 -13.477868042581827 5.807542061313732
186 -12.621508818434352 7.242785518070931 -22.218237226358163
241 1.5426546615101682 13.058150209949863 -5.186458238722662
376 2.488829161755551 -13.570025565033117 8.281517015995783
255 -11.650263552026185 -0.19364983608272673 -16.429662631321598
377 11.876235218176854 11.255070353971037 -5.062750523527731
378 7.7834491526927545 -1.825463443854508 -18.827311596111304
333 -12.940783065950942 -8.112004955372074 5.754951495729926
433 8.500807024710017 -20.34481596959454 2.6952217936523737
567 -6.013212003077228 -5.452156160323334 -3.037814197169647
568 7.667615994109091 9.980132092774312 21.244434422513137
447 7.272621642227652 -2.4069912748121385 14.236492887870972
569 3.5542410405582894 2.347407326810586 -3.691967028424065
570 8.264512691252468 -4.128328974983667 15.319398087526663
525 -0.9667480852993059 1.9278639153919968 9.885403650003601
