LAMMPS data file via write_data, version 22 Jul 2025, timestep = 200001, units = metal

576 atoms
1 atom types

0.31467319837062124 14.79228888177686 xlo xhi
0.3440421203478019 14.762919959799596 ylo yhi
0.3032603308888602 13.939720109110706 zlo zhi

Masses

1 12.01099999691024

Atoms # atomic

5 1 1.455249794522736 1.575819484349874 0.4378651381463441 0 0 0
204 1 6.4000928425405865 0.3964665256005305 1.2293850806681843 0 0 0
207 1 7.560802106495001 14.762462955740506 2.064886376353687 0 -1 0
195 1 8.890419252167224 1.6352947609293733 13.892449876976626 0 0 -1
206 1 8.815014685766098 0.35915092434897994 1.097727250597225 0 0 0
396 1 11.186412267494411 14.689227292333284 1.0433830647960984 0 -1 0
399 1 12.43678336780664 14.730651114933538 1.7860480900067353 0 -1 0
1 1 14.676001086347597 14.630741405647194 2.0205712854900177 -1 -1 0
387 1 13.725426499328382 1.5131100978551544 13.860918723964984 0 0 -1
398 1 13.627708308816683 0.3674993560236338 1.0185518630218313 0 0 0
6 1 1.5893882123263432 2.7432743506715185 1.2155494859430693 0 0 0
7 1 0.46285092448092563 2.7758784383229087 2.030985013875948 0 0 0
4 1 3.8747104415713647 2.705339565483412 1.235937034898635 0 0 0
9 1 2.6952195196764803 2.7837969644420255 1.943089859172432 0 0 0
198 1 6.288605510502439 2.851204479196503 1.09763740497579 0 0 0
199 1 5.1095615475161065 2.7860349894079675 2.0174083106721374 0 0 0
201 1 7.58755818300375 2.729802863745137 1.9419518949034007 0 0 0
196 1 8.805161277706318 2.837454886222998 1.1455924866502172 0 0 0
205 1 8.788901078472641 4.125655132648967 0.3079726972304672 0 0 0
391 1 9.970500336132066 2.8279063397187563 2.089298743640409 0 0 0
390 1 11.106397410465767 2.9302754718222617 1.1571386220630342 0 0 0
393 1 12.432240694244054 2.778092260543971 2.1835803678538346 0 0 0
395 1 11.160362856722479 4.073271576705379 13.916167109339536 0 0 -1
388 1 13.64939022798707 2.817599584515559 1.2594962166330272 0 0 0
397 1 13.590408818855717 3.8418036444783916 0.3631851367311718 0 0 0
65 1 0.3217544466086579 5.1042868581560095 1.9022335365964136 0 0 0
76 1 1.557351408596019 5.145978145307336 1.1746583721093486 0 0 0
78 1 3.9386425813628816 4.981494516813883 1.1257081656009271 0 0 0
79 1 2.6546158910979374 5.231279574170952 1.9578476263735407 0 0 0
257 1 5.224235932828969 5.236302506991538 2.029735615486786 0 0 0
268 1 6.388839643537909 5.341684094657811 1.1444836305921977 0 0 0
271 1 7.511237376891479 5.177388621749792 1.8519224467666822 0 0 0
259 1 8.746998120121834 6.462777311157112 13.917269059266344 0 0 -1
270 1 8.8233958908874 5.313943925226695 1.081273124383742 0 0 0
449 1 10.014274502916098 5.1667925665082 1.8964023785188016 0 0 0
453 1 11.263117354554996 6.434475458385994 0.3109739618224524 0 0 0
460 1 11.133561841373762 5.262210074956965 1.1796002706496893 0 0 0
463 1 12.323487057421637 5.078623103504858 1.8977557073738454 0 0 0
462 1 13.584830017432012 5.006662304046597 1.1661386834075231 0 0 0
70 1 1.6770949402866242 7.5759332644227655 1.1471224429640476 0 0 0
71 1 0.35339145189170434 7.60490682640006 1.8116933058821247 0 0 0
68 1 3.862922904613484 7.556264264509637 1.1774117903645944 0 0 0
73 1 2.6826539018604496 7.596098061990957 2.1468217297416006 0 0 0
262 1 6.229486705185827 7.747236202918418 1.1845517369007246 0 0 0
263 1 5.078042703399806 7.553231132074951 2.0776549382218357 0 0 0
265 1 7.518880854189818 7.612016681718301 1.8553092554424544 0 0 0
260 1 8.826328673515672 7.542097200155893 1.0749066499236128 0 0 0
455 1 9.937964800148567 7.6026706995991225 1.9874908349021756 0 0 0
454 1 11.262791231844393 7.644003372681943 1.2882577524458552 0 0 0
457 1 12.46035861596783 7.520108549077053 1.9984880304823873 0 0 0
452 1 13.662160777189502 7.668960037854337 1.001606172470384 0 0 0
129 1 14.772401171626237 9.992341475723073 2.0127302205877964 -1 0 0
140 1 1.518364368938982 9.877644684358959 1.1911071135424969 0 0 0
142 1 3.8885909030292436 9.829495455563364 1.1821139470677662 0 0 0
143 1 2.5403359044757887 9.825960650605492 2.003736951932506 0 0 0
321 1 5.036030545139424 10.037279709113697 2.013556731193506 0 0 0
332 1 6.358359642530118 9.95221567259339 1.1668242941373688 0 0 0
335 1 7.6134584507226535 9.946077014218812 2.0314265416375976 0 0 0
334 1 8.792534977191604 9.938899773106083 1.1934171840598795 0 0 0
513 1 9.928158860989178 9.917169521602627 2.0428593739173753 0 0 0
524 1 11.154501487600758 10.052834709700115 1.0810488138066296 0 0 0
527 1 12.381923917455506 10.06241056247394 2.041425849793364 0 0 0
526 1 13.486503249868491 10.071112722507962 1.0952632538326186 0 0 0
134 1 1.5543749840148033 12.309683204716272 1.1574281128191726 0 0 0
135 1 0.31804612612490996 12.284029498813258 1.9454978826268847 0 0 0
132 1 3.8170428252094397 12.202504349908661 1.1105389126554 0 0 0
137 1 2.67529248535804 12.353272675498598 2.1323013129715918 0 0 0
326 1 6.31663400828987 12.414903795708064 1.3072360832160257 0 0 0
327 1 4.92791942233891 12.276013709763863 2.072511112893455 0 0 0
329 1 7.489444828358885 12.35545831398618 1.9822872260046072 0 0 0
323 1 8.809809106660374 11.094835889485516 0.3103236377342765 0 0 0
324 1 8.671931246133944 12.247425126793871 1.1196223659006477 0 0 0
519 1 10.018884874960243 12.258937698784298 2.069266837326632 0 0 0
518 1 11.213941081407338 12.466921517508613 1.0524232744524193 0 0 0
521 1 12.456047759388657 12.546985097540407 1.9696503771940697 0 0 0
515 1 13.45911162393433 11.223486674900595 13.863218213004474 0 0 -1
516 1 13.528223991979086 12.367134836287761 1.02852647199647 0 0 0
12 1 1.430763805484783 14.745909155587793 1.1847480399587842 0 -1 0
14 1 4.013147994873394 14.68107780869115 1.315602688492458 0 -1 0
15 1 2.7661014267847137 14.709940485403596 1.997985198900365 0 -1 0
193 1 5.259183274132786 0.38994014976428915 2.02253361625245 0 0 0
331 1 6.367391199302432 13.516616352535895 0.37001730285482454 0 0 0
385 1 10.061157381243568 0.3744419357809008 1.8794754546927548 0 0 0
333 1 8.729034155495668 13.426644655360708 13.928885659271861 0 0 -1
523 1 11.12363261103733 13.590805600190045 13.819727958377838 0 0 -1
21 1 1.4939270312309731 1.4556745863488039 3.621278523120273 0 0 0
16 1 2.7340676273196545 1.516829775028043 2.824479124005107 0 0 0
19 1 3.978562524626886 1.5375669981495346 3.583640329927735 0 0 0
194 1 5.147108608472491 1.6130706585365542 2.7773936824337113 0 0 0
213 1 6.372118085220616 1.4536722200918022 3.8539855814910595 0 0 0
208 1 7.576293319294086 1.5481499189867578 2.936492137432244 0 0 0
211 1 8.869464199570988 1.360901393096517 3.737985153855698 0 0 0
222 1 8.75958305993349 14.709019603767505 4.655386119811495 0 -1 0
386 1 10.085873384870219 1.5714808417473483 2.782799952981598 0 0 0
400 1 12.370975903266885 1.4401596963299232 2.914151788815447 0 0 0
405 1 11.229871156421364 1.6809289543841217 3.720094490677404 0 0 0
2 1 0.36836699139235307 1.5898495313018333 2.8827431912711656 0 0 0
403 1 13.631884721749088 1.47694095523589 3.6993247895240184 0 0 0
22 1 1.5070896574174937 2.7167588266080176 4.537013554089748 0 0 0
27 1 1.6127632749658076 4.020671907734191 3.806425554878908 0 0 0
10 1 2.7269057268713084 4.00712093042646 2.84100338196378 0 0 0
20 1 4.003127038127298 2.565758349830628 4.479779941570865 0 0 0
29 1 3.866424680073621 3.925581691266245 3.866046936090372 0 0 0
200 1 5.171662506105915 4.011198093000228 2.814542774470505 0 0 0
214 1 6.423071551159633 2.777600820913785 4.487764881247149 0 0 0
219 1 6.405894200640665 3.9522451928415157 3.5999379911732166 0 0 0
202 1 7.523399538765938 4.0035538706974645 2.800484624881623 0 0 0
212 1 8.81039207378366 2.580582200733432 4.576097824016704 0 0 0
221 1 8.785970908008792 3.940321468892964 3.63456436807903 0 0 0
392 1 9.944122555253038 3.935971191815231 2.873294122461188 0 0 0
394 1 12.257192041338712 3.952695492191923 2.934945255249915 0 0 0
406 1 11.130507399762664 2.8724787365072486 4.629810336117321 0 0 0
411 1 11.125527398909224 4.000588092343177 3.8041663772522125 0 0 0
8 1 0.3895568505246203 3.8578255787082294 2.959696234636279 0 0 0
404 1 13.631963054420904 2.5975574583954693 4.566842200169362 0 0 0
413 1 13.70307784943596 3.9386979785723826 3.7866215087043487 0 0 0
66 1 0.31662150386671006 6.3831927505545 2.670665582077073 0 0 0
85 1 1.4402197323217547 6.431855637542387 3.699283421118085 0 0 0
92 1 1.4506364896415347 5.166587992431547 4.6259698757968355 0 0 0
80 1 2.7496130912421894 6.307980846058441 2.790830802558304 0 0 0
83 1 4.074080761421793 6.272065208257543 3.6698953094488136 0 0 0
94 1 4.160943948013664 5.156858644014525 4.613020978851789 0 0 0
258 1 5.20724029323265 6.387799932574937 2.812313638392846 0 0 0
277 1 6.309902421739195 6.330469137229465 3.6328486828483286 0 0 0
284 1 6.3453414384854145 5.122966647485995 4.535374925567041 0 0 0
272 1 7.395092040776988 6.42403760274461 2.702198553941979 0 0 0
275 1 8.532282085646163 6.388532249406085 3.5959711482294408 0 0 0
286 1 8.665812998664567 5.1827716651189695 4.523133242642241 0 0 0
450 1 9.856488770831373 6.340268233704068 2.8176773919652742 0 0 0
464 1 12.399332362370465 6.28134948733952 2.8382344691654087 0 0 0
469 1 11.093075628409458 6.37337475371568 3.6573328346053593 0 0 0
476 1 11.177992841061268 5.081379978582642 4.609339975832455 0 0 0
467 1 13.578302792892895 6.362380871319209 3.675747667629544 0 0 0
478 1 13.671136377994 5.204186422431157 4.619754261426048 0 0 0
86 1 1.6260450531141295 7.610909292330693 4.576151175078943 0 0 0
84 1 3.9495315675401694 7.569188911264871 4.42943064847933 0 0 0
278 1 6.397806795668452 7.494902729493285 4.521508918369184 0 0 0
276 1 8.61323476332294 7.662129567698671 4.501656825774216 0 0 0
285 1 8.784841676327794 8.855799250733249 3.7480326449902246 0 0 0
470 1 11.154950594216189 7.506664646647367 4.595774947569496 0 0 0
468 1 13.539988823756467 7.535946878153656 4.633071849447318 0 0 0
91 1 1.422193101949187 8.789390586326018 3.6135513501843164 0 0 0
156 1 1.3801274578176117 9.943280477416454 4.553037088361124 0 0 0
74 1 2.667765091217267 8.834606508872433 2.87782227541674 0 0 0
93 1 3.83636369987721 8.777025825598145 3.7042281999946227 0 0 0
158 1 3.871015029742851 9.90211376469859 4.6600927237612995 0 0 0
264 1 5.264790112297297 8.600706715372908 2.859551214699007 0 0 0
283 1 6.432358778694583 8.773873688830392 3.757006095606728 0 0 0
348 1 6.247089192247646 9.899453876219884 4.537669408502928 0 0 0
266 1 7.50033837691811 8.808880456160974 2.8531287391149798 0 0 0
350 1 8.659631494591636 10.143935048916543 4.538143310777555 0 0 0
456 1 10.126027580118738 8.779664325460672 2.909327935553677 0 0 0
458 1 12.50827088399799 8.696550457412467 2.869146989664215 0 0 0
475 1 11.19738718110553 8.756364289129888 3.788485045306701 0 0 0
540 1 11.09143112159888 10.01476355913356 4.461106557793916 0 0 0
72 1 14.725896155973565 8.85746148027891 2.6982581985473706 -1 0 0
477 1 13.485133488832542 8.73695138616998 3.796771017552443 0 0 0
542 1 13.516881457694407 9.830046256423124 4.602034676799408 0 0 0
130 1 0.3625697938839998 11.04384252210983 2.7733816881918143 0 0 0
149 1 1.471778775306088 11.086314710251063 3.681844279030153 0 0 0
150 1 1.5179944172053723 12.43705735640916 4.568244232585007 0 0 0
144 1 2.7869988807201316 11.066875896882845 2.911222626053276 0 0 0
147 1 3.899525586302023 11.02854016647185 3.7693216544493726 0 0 0
148 1 3.94812173187588 12.25140985511796 4.537741765911809 0 0 0
322 1 5.118051882544775 11.0950425934268 2.924370970104766 0 0 0
341 1 6.502605241971581 11.129181491278558 3.839537432319182 0 0 0
342 1 6.458249910241088 12.476622447500763 4.628787461791652 0 0 0
336 1 7.630612938358915 11.103008806019982 2.9313134227813067 0 0 0
339 1 8.796284046122981 11.266930789421611 3.771815197292601 0 0 0
340 1 8.744997530378395 12.453908701351452 4.603845070128901 0 0 0
514 1 9.878128942017383 11.096792934260172 2.9047617899636515 0 0 0
528 1 12.363454046342337 11.33649918265932 2.743263578424015 0 0 0
533 1 11.203783758886061 11.320468241355055 3.651117454936831 0 0 0
534 1 11.093940769017877 12.52398150831199 4.503920386666678 0 0 0
531 1 13.654648059789984 11.027839504537717 3.578016079529923 0 0 0
532 1 13.52141599899485 12.317486618202722 4.435974209444814 0 0 0
28 1 1.4917314631787264 14.565340468941002 4.404065005531061 0 -1 0
136 1 0.36018267114692215 13.556684760646867 2.897545859755579 0 0 0
155 1 1.5612100764032768 13.397385396315752 3.6780914677088496 0 0 0
30 1 3.9591356471327854 14.699884199657799 4.473477656838832 0 -1 0
138 1 2.735175958586638 13.476813218122356 2.8861090017102473 0 0 0
157 1 3.8960714620831807 13.49292638032042 3.686523766783718 0 0 0
220 1 6.297501060318188 0.39856069448827114 4.675777708802667 0 0 0
328 1 5.152894581217518 13.422992979727024 2.894201000638052 0 0 0
347 1 6.387250953149926 13.492797478227548 3.8367989906049282 0 0 0
330 1 7.537876390099721 13.636551999517678 2.985770585551105 0 0 0
349 1 8.871986543669653 13.624834105262252 3.75701097046603 0 0 0
520 1 10.079939066241007 13.639320096670641 2.7991959909922572 0 0 0
412 1 11.16828493184509 0.44709753873108227 4.551148561935299 0 0 0
522 1 12.382427230026938 13.717982870960853 2.7367364615788725 0 0 0
539 1 11.203877830524611 13.722384857167516 3.591254785281307 0 0 0
414 1 13.652128447216153 14.753753732154294 4.56600062414915 0 -1 0
541 1 13.624415509186736 13.647413433869922 3.636387560635845 0 0 0
37 1 1.4312621883551222 1.4626595750211304 7.033278260098011 0 0 0
31 1 2.7309192363638575 14.689887446892964 5.276672837801956 0 -1 0
32 1 2.6494490481566357 1.3867505597494216 6.079026638261649 0 0 0
35 1 3.954676598394716 1.4881227635221512 7.026875343562733 0 0 0
210 1 5.139519643219152 1.5992247455078583 6.1946204451702815 0 0 0
224 1 7.596646320993292 1.4954765122109277 6.256402194226777 0 0 0
402 1 9.945723258880047 1.7182819966591376 6.406150222845096 0 0 0
227 1 8.820503828397186 1.6202079206048825 7.243187534944009 0 0 0
416 1 12.459705367994147 1.5729927645549349 6.2620066129046705 0 0 0
18 1 0.3542059962227846 1.4096176615384266 6.153138835142416 0 0 0
23 1 14.768438197115076 2.7104281231889615 5.4124048041868775 -1 0 0
24 1 0.32842177675342665 3.7546971664258826 6.2828299043615425 0 0 0
25 1 2.8451204614307524 2.5797553561481417 5.417878486678858 0 0 0
26 1 2.8091354747846937 3.6929920980499147 6.239354540335011 0 0 0
215 1 5.24065744099242 2.744023903982894 5.301278513045729 0 0 0
216 1 5.176474601807154 3.8814483865657734 6.1941550764296665 0 0 0
235 1 6.394359867767626 3.944761819321979 7.042472446472198 0 0 0
217 1 7.585580603712035 2.7987026139724884 5.518269608009418 0 0 0
218 1 7.458447627243508 4.02860897325078 6.261417967569254 0 0 0
407 1 9.94708643437054 2.8029589644740773 5.370589133518397 0 0 0
408 1 9.885296072667611 4.011134071325943 6.275101498518694 0 0 0
409 1 12.503981392487546 2.905525877305175 5.482376193026921 0 0 0
410 1 12.462875762313736 3.97795422412324 6.334188958028415 0 0 0
429 1 13.541273778589858 4.02320222775251 7.226770363011352 0 0 0
82 1 14.771478111182141 6.4021500126959205 6.304216994108511 -1 0 0
95 1 2.851671937860697 5.04347630478018 5.367310953890819 0 0 0
96 1 2.70976017808139 6.230545089523731 6.233372513069708 0 0 0
99 1 3.9046566782227177 6.226856948196002 7.1490814511133705 0 0 0
273 1 5.262844361850389 5.101799346711979 5.374899869160305 0 0 0
274 1 5.186421862507781 6.2633128813940315 6.225713467605876 0 0 0
293 1 6.364393464388038 6.263270751250662 7.168577828601747 0 0 0
287 1 7.5211803406772155 5.165241976215384 5.412449238333071 0 0 0
288 1 7.509087416175964 6.416544816872717 6.229850407512226 0 0 0
465 1 9.86207057264727 5.26820670531093 5.4912144471106155 0 0 0
466 1 9.831197630499943 6.366428003085024 6.273067937462752 0 0 0
291 1 8.66149972373973 6.422905210833539 7.1416497297392265 0 0 0
479 1 12.491380230159166 5.240096124835285 5.456847581171445 0 0 0
480 1 12.479035735070443 6.340424959695871 6.3853908754271185 0 0 0
485 1 11.017984109432401 6.363555602361722 7.111656983709457 0 0 0
81 1 14.762077943082833 5.119853484060186 5.509355872792032 -1 0 0
483 1 13.685890813843972 6.479436972383861 7.142215960675765 0 0 0
87 1 0.34287152979352686 7.622037442140445 5.472870224651373 0 0 0
89 1 2.7219137314683857 7.412114866424408 5.420904436538968 0 0 0
279 1 5.130961640061498 7.509413850728403 5.359680670653788 0 0 0
281 1 7.520697738167917 7.583236575175558 5.533488819543416 0 0 0
471 1 9.855866940623361 7.486387774510343 5.477749866043612 0 0 0
473 1 12.310307174455279 7.520462646441145 5.459589894080497 0 0 0
88 1 0.3411962461566761 8.75589581999019 6.461604601902545 0 0 0
145 1 0.32094789547351754 9.920083770856255 5.5420145105678555 0 0 0
90 1 2.939591607643379 8.619681584154755 6.259262308151256 0 0 0
159 1 2.6247292301156278 9.92230395729053 5.4672844707713 0 0 0
280 1 5.121036253582211 8.750350038108461 6.205074242585036 0 0 0
337 1 5.0542839302208895 10.045335680988522 5.360198390817619 0 0 0
299 1 6.228951328718151 8.741965285374647 7.090757478458136 0 0 0
282 1 7.5407336358069665 8.79892848430281 6.300966279674511 0 0 0
351 1 7.429527474131798 9.875235369672708 5.4962462246831425 0 0 0
472 1 10.018991411770962 8.75574286948099 6.305296588776913 0 0 0
529 1 9.979774545434434 10.083112655394292 5.448217408196603 0 0 0
301 1 8.749280550100284 8.792090738174156 7.184307713888884 0 0 0
474 1 12.479191383562004 8.664278432545629 6.318064563978073 0 0 0
543 1 12.398591017395528 9.914207296857931 5.431928745146022 0 0 0
146 1 0.37296651346597454 11.146938095139983 6.37324238413112 0 0 0
153 1 2.7357983316590295 12.409732863220821 5.414585269412061 0 0 0
160 1 2.7380167916125338 11.228221305183954 6.251980320085599 0 0 0
163 1 3.9915106373815994 11.109108543492127 7.109888629148973 0 0 0
338 1 5.179157373553172 11.196297905210908 6.264887783401942 0 0 0
343 1 5.199833756638216 12.439334584660273 5.43224384401847 0 0 0
357 1 6.447639731119985 11.243142518565442 7.1614597328403065 0 0 0
345 1 7.4629883508602735 12.402139564428271 5.571754889319829 0 0 0
352 1 7.54713672421152 11.221198195733237 6.3029433963128385 0 0 0
530 1 9.931151943192255 11.324266363208494 6.283436365345237 0 0 0
535 1 9.898927685038604 12.450128690059735 5.4157480169618015 0 0 0
355 1 8.721630798515747 11.292815015223894 7.208839499891958 0 0 0
537 1 12.186146743508235 12.39304493329147 5.19749914455671 0 0 0
544 1 12.26581224404238 11.274380731252364 6.243797275759821 0 0 0
151 1 14.719040077916386 12.390531300795857 5.502930337242205 -1 0 0
154 1 2.7569665226248303 13.541046204119777 6.211729946844202 0 0 0
173 1 3.890562868790539 13.501284277242029 7.071543484017825 0 0 0
209 1 5.113616291823078 14.701083504500684 5.391568891448821 0 -1 0
344 1 5.125106975111952 13.665935323468968 6.307627455931825 0 0 0
223 1 7.551893364486008 0.36291859289947936 5.470104259170498 0 0 0
346 1 7.446152519501331 13.489932304899366 6.366286906160587 0 0 0
401 1 10.030106088745004 0.4504284206412237 5.40901036096629 0 0 0
536 1 9.905332976394519 13.623713703882526 6.304595265354801 0 0 0
415 1 12.408187770431784 0.44849026147139526 5.3028024901254085 0 0 0
538 1 12.364636954092266 13.668319987988525 6.13977795709096 0 0 0
17 1 0.38282411842775943 14.631847036633893 5.3982124885249485 0 -1 0
152 1 0.3799912932361842 13.503766179195882 6.4195219199339695 0 0 0
557 1 13.447441923702538 13.480574087531028 6.986267582195858 0 0 0
44 1 1.5648289690687718 14.613035972240683 8.10978527752729 0 -1 0
229 1 6.360098221565677 1.5902484897180549 7.077386358655852 0 0 0
236 1 6.314050046266612 0.41329394368756567 7.995142836599426 0 0 0
239 1 7.54301628006317 0.39107073101328477 8.88619275665085 0 0 0
238 1 8.665529804993689 14.746945013066398 8.070280689595277 0 -1 0
417 1 9.875849413423904 14.720346224521524 8.78411869044044 0 -1 0
421 1 11.250299366892126 1.589689757280365 7.2170931552166495 0 0 0
428 1 11.24589527598419 0.40930231511142473 8.054097463511152 0 0 0
33 1 14.753939736537827 0.38322402754786744 8.85442770911055 -1 0 0
419 1 13.760164740795275 1.47217340395153 7.096954282852894 0 0 0
430 1 13.543649479583781 14.742683595840045 8.03713572708138 0 -1 0
38 1 1.551314135786686 2.7195181622973132 7.954903838139213 0 0 0
39 1 0.4462714218079177 2.70087621543075 8.852050766215754 0 0 0
43 1 1.7272543781377903 3.8219731695633756 7.01780446038273 0 0 0
36 1 3.9397311881083112 2.7234027001245127 7.9507075108808944 0 0 0
41 1 2.7983741224842995 2.5818303149312243 8.800632202568021 0 0 0
45 1 3.9982836811131413 3.7692876159621505 7.1856459945324085 0 0 0
230 1 6.29560099364034 2.813601785466724 7.965472861885315 0 0 0
231 1 5.095416667506527 2.705814662872413 8.82998408686636 0 0 0
233 1 7.574886643009288 2.766676301165245 8.937230683697507 0 0 0
228 1 8.716731249624932 2.836403409963022 8.151011453376208 0 0 0
237 1 8.692100247107032 3.9664962695536006 7.213046350659039 0 0 0
423 1 9.910649442413124 2.649400208576648 8.87953882644209 0 0 0
422 1 11.159332963487334 2.696044439338896 8.037601955918813 0 0 0
425 1 12.411977197826612 2.6844180440401044 8.935263587687196 0 0 0
427 1 11.146595392077124 3.9164382172447705 7.2515033538693325 0 0 0
420 1 13.742928548181041 2.765949015450989 8.01235041110127 0 0 0
97 1 0.36031667964696695 5.043018425739017 8.827552674997762 0 0 0
101 1 1.4761975033944583 6.27792597568181 7.11660698921078 0 0 0
108 1 1.6125231307554493 5.009016877634172 7.8970226945088395 0 0 0
110 1 3.9493752896335286 4.990064708180375 7.997443913803491 0 0 0
111 1 2.6995297600678114 5.069305576484387 8.861350625634628 0 0 0
289 1 5.16819848191955 5.113957566112194 8.884616951240453 0 0 0
300 1 6.3686380074573 5.074342584851043 8.053842429042895 0 0 0
303 1 7.551149512151436 5.148930445462366 9.153420726962498 0 0 0
302 1 8.657446626911305 5.247832002796958 8.042816827587842 0 0 0
481 1 9.881529633730214 5.1174294050113724 8.876492867429082 0 0 0
492 1 11.042180699564547 5.164930408988719 8.072598323866902 0 0 0
495 1 12.435623850868215 5.239178123936412 8.815433100127706 0 0 0
494 1 13.562685805966161 5.334862650446401 7.961460435229903 0 0 0
102 1 1.4454991623613636 7.4490340280550225 8.101567310019593 0 0 0
100 1 4.041200175938417 7.434084130633557 7.931649015459682 0 0 0
105 1 2.8804251887524286 7.534086510150711 8.863571062169722 0 0 0
294 1 6.247842694679988 7.438657226145848 7.893869221703943 0 0 0
295 1 5.153286477376376 7.557702684729705 8.89340896750926 0 0 0
297 1 7.469067320582564 7.471671410070121 8.86858855131582 0 0 0
292 1 8.680438971262504 7.6566407357078194 7.8759109684324 0 0 0
487 1 9.823607563977387 7.660328211187453 8.720065052310208 0 0 0
486 1 11.051264201527605 7.619990468587856 8.007891599508335 0 0 0
489 1 12.396973377609587 7.529881133274547 8.98488247615662 0 0 0
103 1 0.38841786743043016 7.481743487847212 8.965241582185236 0 0 0
484 1 13.718876625394977 7.618193612616604 8.058133652304791 0 0 0
107 1 1.6280194986438168 8.661431762838365 7.227917165674524 0 0 0
172 1 1.4634553616776176 9.981982171793543 7.970910495006263 0 0 0
109 1 4.038913432970371 8.583147016434658 7.144844357683254 0 0 0
174 1 3.974535598967058 9.96392624219456 7.899565289070608 0 0 0
175 1 2.679117418545289 9.919596191131653 8.931124589482398 0 0 0
353 1 5.151376024680003 9.911084745468724 8.93421128960226 0 0 0
364 1 6.435668276641659 9.977447079134297 8.0564882509704 0 0 0
367 1 7.634983151945267 9.911503995744503 8.808761914164318 0 0 0
366 1 8.880406888909405 9.99329114569709 7.9135705942459404 0 0 0
545 1 9.991051513330959 9.908098670288616 8.768555433737276 0 0 0
491 1 11.226909145404115 8.7819572405535 7.07002875628183 0 0 0
556 1 11.220508269407425 9.95139779663123 7.769616768235054 0 0 0
559 1 12.234757674765508 9.973013409345814 8.899911260607297 0 0 0
161 1 14.782218546114429 9.850207648350203 8.847709589053068 -1 0 0
493 1 13.639416666454238 8.891015869507733 7.1986270496014555 0 0 0
558 1 13.445395875091794 10.011509558419867 8.033979170331655 0 0 0
165 1 1.5334612035275248 11.217347334856548 7.196473240422954 0 0 0
166 1 1.5552602624341703 12.387885077095444 8.067048301478106 0 0 0
164 1 3.9635564926918474 12.274081346700182 7.949497188133806 0 0 0
169 1 2.7853684382869592 12.41170956744772 8.829643853109111 0 0 0
358 1 6.518671810863259 12.280327337062108 7.956329068621581 0 0 0
359 1 5.011802252452602 12.222934373767156 8.769778786587196 0 0 0
361 1 7.64058810173241 12.33978764267141 8.901040012705725 0 0 0
356 1 8.714413829989212 12.44724673286953 8.041240086617393 0 0 0
551 1 10.064513864902906 12.316737834475123 8.798414299554992 0 0 0
549 1 11.123743242432067 11.253272641275846 7.062089419468837 0 0 0
550 1 11.197764668666213 12.49556714322572 7.98326565100119 0 0 0
553 1 12.45072020820172 12.401519524815473 8.740314540187672 0 0 0
547 1 13.640792217901744 11.062990076544999 7.1429192263597425 0 0 0
167 1 14.604740635580857 12.370074436872098 8.743767458641898 -1 0 0
548 1 13.517520568369722 12.324918859469182 7.86181572639501 0 0 0
171 1 1.6273849421945101 13.51732640070085 7.245126076736076 0 0 0
46 1 3.936705427528267 14.721675710338214 8.064146511241818 0 -1 0
47 1 2.7425643409384373 14.65699652637555 8.855479005275154 0 -1 0
225 1 5.201630729418394 14.757833975363777 8.76342021035672 0 -1 0
363 1 6.297800038184474 13.6665400530853 7.106141931249544 0 0 0
365 1 8.595953908574696 13.61021003385515 7.122313674549036 0 0 0
431 1 12.43471197987142 14.716655011920938 8.778328828852576 0 -1 0
555 1 11.043556272683599 13.557327048332553 7.154881430241696 0 0 0
53 1 1.5451605517878129 1.461645020014142 10.420140186729025 0 0 0
60 1 1.579895799862566 14.746005898366052 11.403343482811387 0 -1 0
48 1 2.75978355261941 1.3897768687068988 9.719613497597582 0 0 0
51 1 3.914244384507375 1.542082465998629 10.597876277676555 0 0 0
62 1 3.890214224332401 14.741568851721953 11.45667851740249 0 -1 0
226 1 5.138225429634499 1.4755190373415679 9.647646550744017 0 0 0
245 1 6.298917393065174 1.464943515914468 10.53582871838299 0 0 0
252 1 6.432882807293864 14.749370989430732 11.518797226523748 0 -1 0
240 1 7.463285941140293 1.5116056864469989 9.729185888327027 0 0 0
243 1 8.722638726602078 1.4348447491783392 10.689350897681194 0 0 0
254 1 8.720612078886841 14.68697105427152 11.48757552560308 0 -1 0
418 1 10.063288547552922 1.464999386382563 9.781118429651542 0 0 0
432 1 12.412894785713657 1.4087051670963635 9.579398472378287 0 0 0
437 1 11.163593225307373 1.510463197767225 10.456354404445626 0 0 0
34 1 14.699272479328009 1.4769761450000485 9.698305744087577 -1 0 0
435 1 13.573147313125883 1.5924548275392179 10.52026187638944 0 0 0
446 1 13.578703963840152 0.5161253897588954 11.340192044161121 0 0 0
40 1 14.792022830233721 3.9132488472776825 9.584336924535783 -1 0 0
54 1 1.5019406387101062 2.7537074449263224 11.39914848791339 0 0 0
59 1 1.6565395803793124 3.836946597747828 10.589485955586742 0 0 0
42 1 2.8614677848613064 3.7819277439062318 9.667017485258146 0 0 0
52 1 3.8705174770038773 2.7466979385196786 11.459445888377996 0 0 0
61 1 3.9762945823728115 3.875224852027861 10.426075963114343 0 0 0
232 1 5.141908811365176 4.002847314004828 9.624485574424892 0 0 0
246 1 6.282849364010918 2.8197618271395726 11.366722848112811 0 0 0
251 1 6.262023901034789 3.937803129720105 10.436414319175718 0 0 0
234 1 7.3622783241312675 3.981417251855107 9.795152822733385 0 0 0
244 1 8.756737951605047 2.8013937296891056 11.444349917453241 0 0 0
253 1 8.632919119049664 4.022437198878283 10.57005636303527 0 0 0
424 1 9.83374693157841 3.834297072622849 9.713618359672783 0 0 0
426 1 12.375568807773792 3.954542666618987 9.716673019313504 0 0 0
438 1 11.188453910236678 2.8434885161577754 11.389206959061749 0 0 0
443 1 11.146278558332643 3.9595180912269154 10.539064930420967 0 0 0
436 1 13.602088093041559 2.7253145822607743 11.357681752375143 0 0 0
445 1 13.57485649319278 3.766599117208321 10.539263159299285 0 0 0
117 1 1.5056410721775144 6.382244514135582 10.525119676095194 0 0 0
124 1 1.5568835294027916 5.142032879231522 11.431970232350352 0 0 0
112 1 2.692389514374469 6.287078566320619 9.571219569550081 0 0 0
115 1 3.7997033852609827 6.349066603454297 10.447941592575113 0 0 0
126 1 3.945965380086419 4.928453509161711 11.306268314979313 0 0 0
290 1 5.288091326906729 6.366872060523985 9.656975286912182 0 0 0
309 1 6.3913526941039684 6.440466051032797 10.621389267216692 0 0 0
316 1 6.377988058891503 5.15585280605307 11.33563092334585 0 0 0
304 1 7.516441698328158 6.368129410878802 9.775337541105674 0 0 0
307 1 8.769157938112059 6.446207699695451 10.609524241283694 0 0 0
318 1 8.817014565523362 5.3015614948491105 11.399569722614633 0 0 0
482 1 9.892498697046346 6.500996485560157 9.578750850822853 0 0 0
496 1 12.392062713350885 6.3483573026943265 9.757072692906391 0 0 0
501 1 11.103956418989792 6.433201573998514 10.405531316807608 0 0 0
508 1 11.237897437251824 5.0608615332821785 11.468529661555714 0 0 0
98 1 0.358373483652052 6.18095076944882 9.736810615891873 0 0 0
499 1 13.593618347063497 6.315643266410223 10.447982021888247 0 0 0
510 1 13.471688413490973 5.021608555750036 11.584502406187699 0 0 0
118 1 1.4983911505434167 7.571016944755771 11.41202364985621 0 0 0
116 1 3.7891147293863026 7.579285991298683 11.309676281031685 0 0 0
310 1 6.308707377726061 7.65057863715015 11.334025473011192 0 0 0
308 1 8.767472317421095 7.666369307985015 11.329845498052542 0 0 0
502 1 11.17290234909363 7.481936589157117 11.284824631941184 0 0 0
500 1 13.606343158263485 7.416860414439475 11.351746633784671 0 0 0
123 1 1.4234735307469533 8.686550957788342 10.499381999251632 0 0 0
188 1 1.4361113819609361 9.820614282835233 11.3413188880121 0 0 0
106 1 2.732941118535018 8.721253085294009 9.72444368127383 0 0 0
125 1 3.966089213545461 8.786441115444362 10.525056686047982 0 0 0
190 1 3.7972336421561907 9.90733951800232 11.351608524388908 0 0 0
296 1 5.1315788391177 8.787982619107947 9.697174273204016 0 0 0
315 1 6.338292784340232 8.756635225329426 10.439615374450323 0 0 0
380 1 6.335861994933326 10.05116050905874 11.34492269543954 0 0 0
298 1 7.476049829432274 8.806163743307579 9.634371361558806 0 0 0
317 1 8.650101017007287 8.819978349154816 10.676972767949191 0 0 0
382 1 8.78161088243338 10.084935825950634 11.50100788309085 0 0 0
488 1 9.866496868852611 8.691333786706203 9.816325894016678 0 0 0
490 1 12.390359125831136 8.754769901676003 9.781680662108236 0 0 0
507 1 11.26997792722328 8.911822306065389 10.518047817222502 0 0 0
572 1 11.215944849554752 10.097259042240513 11.278916864218022 0 0 0
104 1 14.78123903456423 8.629888615461812 9.851004317052364 -1 0 0
509 1 13.638513834956893 8.722463674690847 10.70307392620025 0 0 0
574 1 13.649359383414907 9.851274017667727 11.488226449538953 0 0 0
181 1 1.4791146602587204 11.32943269562313 10.497415605554526 0 0 0
182 1 1.495020622680298 12.424936225164206 11.380147746228875 0 0 0
176 1 2.734706881986417 11.213179094459104 9.626407028164323 0 0 0
179 1 3.8816078294562972 11.0835785558901 10.583738406092301 0 0 0
180 1 3.847151609614975 12.250288164315208 11.403077348924324 0 0 0
354 1 5.132026962506337 11.109578277229307 9.56031725199253 0 0 0
373 1 6.352608823075031 11.221605019386192 10.415686756554415 0 0 0
374 1 6.34910752733046 12.227492979361894 11.275723168934125 0 0 0
368 1 7.657277769619513 11.071702858242489 9.664479736549179 0 0 0
371 1 8.808806871536564 11.191821433486538 10.592515938334301 0 0 0
372 1 8.728770621215514 12.398434448676902 11.42735431281162 0 0 0
546 1 10.04196945586672 11.10241451417933 9.64166595791811 0 0 0
560 1 12.278652329255383 11.148428310995676 9.635782159483053 0 0 0
565 1 11.10028149214003 11.211661774656246 10.457124088270898 0 0 0
566 1 11.087009588736436 12.465962782541766 11.357199171600296 0 0 0
162 1 14.733161374063918 11.142994778602368 9.831120225639335 -1 0 0
563 1 13.463917686509319 11.12258432184656 10.64519758476629 0 0 0
564 1 13.51146818663899 12.444690657800258 11.357867969765792 0 0 0
187 1 1.5118130817324864 13.580876080610793 10.460521336672631 0 0 0
170 1 2.702134036307134 13.589612558590954 9.65294352571053 0 0 0
189 1 3.9359489106905245 13.488142095042708 10.617389907575223 0 0 0
360 1 5.223934429396904 13.603792955516365 9.643752492499967 0 0 0
379 1 6.433771597130626 13.678389365548181 10.663095891524353 0 0 0
362 1 7.536635396833059 13.512322881437974 9.721839749661193 0 0 0
381 1 8.78326314129535 13.511355548558804 10.566308319279702 0 0 0
552 1 9.951982417685052 13.531187799709514 9.62298571019178 0 0 0
444 1 11.163474167439574 0.3656093807430487 11.47197830963847 0 0 0
554 1 12.376576152808184 13.548066677113646 9.665255149264251 0 0 0
571 1 11.123533694155228 13.6310416285148 10.512184735059854 0 0 0
168 1 0.3228518913510037 13.580059754484981 9.65043222266705 0 0 0
573 1 13.626889697084003 13.564413639249423 10.517223458742752 0 0 0
49 1 0.3607601173457176 0.39534163587825 12.1676687286926 0 0 0
3 1 3.8507427922608075 1.4766496926640629 0.40237458700729434 0 0 0
63 1 2.7466371450950975 14.709207476165643 12.285143476813449 0 -1 0
64 1 2.715734404358752 1.4647322519093615 13.101471130661917 0 0 0
197 1 6.172535262019342 1.5157257968310203 13.923913212997487 0 0 -1
241 1 5.062799209226058 0.3714828346056329 12.292735118864748 0 0 0
242 1 5.061622041634659 1.5012756840575177 13.079832591772469 0 0 0
255 1 7.489525590235234 0.36847570459748125 12.443782558177723 0 0 0
256 1 7.610506125096636 1.7265284838445827 13.208673458057934 0 0 0
434 1 9.944947583510775 1.696613292744137 13.001994831053477 0 0 0
389 1 11.107364850479403 1.8262798638026752 13.77678994933618 0 0 -1
447 1 12.395534390661272 0.46457289209550406 12.206320126053981 0 0 0
448 1 12.405887154570582 1.6536836655161313 13.078049723943092 0 0 0
50 1 0.5294235674505074 1.4670975243185722 13.070705849051066 0 0 0
11 1 1.5668176113355539 3.9071823996051416 0.3140197713580761 0 0 0
55 1 14.788045251819556 2.7215313973723303 12.148062239942014 -1 0 0
56 1 0.441571670929761 3.943208550313835 13.01134059698272 0 0 0
13 1 4.059592018284476 3.930692789339953 0.3102759001471149 0 0 0
57 1 2.5854676701310777 2.6321426872916196 12.333254584441839 0 0 0
58 1 2.8400054153501477 3.962986080443987 13.100781972358835 0 0 0
203 1 6.255102802070033 4.0413717822846085 13.910083855469065 0 0 -1
247 1 5.0250942997104255 2.650507602108051 12.201525810317293 0 0 0
248 1 5.066792334652418 4.008859329063449 13.092253474361414 0 0 0
249 1 7.455868209582262 2.90431067692506 12.237316471372345 0 0 0
250 1 7.52900678640286 4.086584310665538 13.085934507157294 0 0 0
439 1 10.047979061572725 2.964086700243216 12.324051288542783 0 0 0
440 1 9.983988165801922 4.052107938536622 13.091210098384494 0 0 0
441 1 12.511375314118972 2.738067676818347 12.29100935571002 0 0 0
442 1 12.353483130873776 4.011578396888902 13.11395412719883 0 0 0
69 1 1.6760151747649854 6.314531662268089 0.3106182155609538 0 0 0
67 1 3.9554102658296273 6.311206062710817 13.880304827648306 0 0 -1
127 1 2.8873924991981252 5.011415315380267 12.127331718313457 0 0 0
128 1 2.7436443725141264 6.223252412598021 12.93423035891973 0 0 0
261 1 6.347865302263169 6.590442597953354 0.3679709692391171 0 0 0
305 1 5.158732758401084 5.137202251359798 12.144567227857209 0 0 0
306 1 5.135561279443318 6.371647143231216 13.05018738582341 0 0 0
319 1 7.538869671240979 5.169879963530557 12.21215699735044 0 0 0
320 1 7.578763620368899 6.545795636793959 13.02168357835194 0 0 0
497 1 9.983177048307017 5.3031738602265674 12.182327988730645 0 0 0
498 1 9.964519373998723 6.520303058851422 13.134925153500959 0 0 0
511 1 12.375100469394667 5.198585742728631 12.254304633640047 0 0 0
512 1 12.593657286546776 6.377448687580843 13.07452210514684 0 0 0
451 1 13.723081992537224 6.363878303182073 13.838460971653362 0 0 -1
113 1 0.48618655567796054 5.086096452593224 12.15750694899874 0 0 0
114 1 0.5200361358001366 6.20671856774196 13.106212473774118 0 0 0
121 1 2.694613763439773 7.439230469144132 12.118300064096111 0 0 0
311 1 5.105925329850353 7.530619719522403 12.117469379488632 0 0 0
313 1 7.602856868072699 7.648268883492833 12.177900367296559 0 0 0
503 1 9.9155552699863 7.630694120520125 12.126802932972613 0 0 0
505 1 12.298032813378146 7.562979273707839 12.175316956099998 0 0 0
119 1 14.77050457535221 7.580403695540367 12.24858663120838 -1 0 0
75 1 1.3456641548856003 8.7082816133514 0.3069414719846755 0 0 0
120 1 14.778122891966978 8.781501557759857 12.995001155836245 -1 0 0
177 1 0.3365780435528652 9.837359261670144 12.19128767468743 0 0 0
77 1 3.979869899888087 8.719158455800788 13.858814457069876 0 0 -1
122 1 2.721157629836155 8.611008060296736 12.970250490612273 0 0 0
191 1 2.683548663904414 9.821939403014614 12.23526936198735 0 0 0
267 1 6.3432175485420395 8.809836677434134 13.822027322707935 0 0 -1
312 1 5.200092076750652 8.84011827122999 13.083554645588592 0 0 0
369 1 5.135229894483763 10.01328991750384 12.177145591761288 0 0 0
314 1 7.490418307019531 8.775854484721641 12.995990336588225 0 0 0
383 1 7.553161035704436 10.058921605019304 12.2226560003588 0 0 0
269 1 8.881134105872004 8.75161397049964 13.907558901005885 0 0 -1
504 1 9.990178486330574 8.839884976905559 13.05894172093398 0 0 0
561 1 9.968247211874097 9.99126655017367 12.21869263623719 0 0 0
459 1 11.221980403397517 8.817971551537806 13.925999495700456 0 0 -1
506 1 12.26910782403812 8.696034991144572 13.00139912137249 0 0 0
575 1 12.405819980171483 9.904995219040824 12.2022050861851 0 0 0
461 1 13.431957311786114 8.82911481611755 13.744736118992815 0 0 -1
133 1 1.4220270585048456 11.047055025025124 13.925870405166052 0 0 -1
131 1 3.8776159574902924 11.028858000505394 13.880238040237384 0 0 -1
185 1 2.6799117845262925 12.32107784543581 12.284680023170452 0 0 0
192 1 2.6637534454897183 10.948102009919197 13.085800601156834 0 0 0
325 1 6.337799948224526 11.127260849118723 13.894534399440946 0 0 -1
370 1 5.121940983157486 11.292860009607935 13.136780854828956 0 0 0
375 1 5.064105199146232 12.327081398312867 12.151699839311632 0 0 0
377 1 7.519658719922839 12.418704983881675 12.156383498443084 0 0 0
384 1 7.5965460384265295 11.166414599193192 13.086010114705875 0 0 0
562 1 10.114146799791378 11.032972473307165 13.149545677655592 0 0 0
567 1 9.974758419123333 12.218143796120234 12.264168002782409 0 0 0
517 1 11.185963058070296 11.275767392218722 13.925291081251622 0 0 -1
569 1 12.293581011447571 12.458792953660492 12.096469082322649 0 0 0
576 1 12.40154824061398 11.251209636397345 13.071617150127235 0 0 0
178 1 0.34735976424531856 11.14579175450621 13.030274983243842 0 0 0
183 1 14.76851468787762 12.413079290900054 12.269638103718442 -1 0 0
139 1 1.654004812661932 13.556100025425916 0.3067423163645664 0 0 0
141 1 4.00559521947236 13.495001442415038 0.40424835659976566 0 0 0
186 1 2.788007991529564 13.540686967763378 13.056834910731368 0 0 0
376 1 5.231083008831537 13.485612837207569 13.063341986327316 0 0 0
378 1 7.501497868576438 13.548751540747016 13.109970282108353 0 0 0
433 1 9.91907035261891 0.39216647903721125 12.24631628426533 0 0 0
568 1 9.895627637177306 13.52555045320674 13.167376445481654 0 0 0
570 1 12.233594252862023 13.594610114952125 12.991886376155495 0 0 0
525 1 13.5156122477342 13.581564149452777 13.862531721137149 0 0 -1
184 1 0.41873191913675356 13.53146412055089 13.160677843497599 0 0 0

Velocities

5 -13.399019564377108 11.341825535060451 -6.338415842693152
204 -5.945999828633846 14.000990261241544 -15.241250193450925
207 24.90904108491493 3.144452650130736 -13.788662121254532
195 15.62014589905189 2.2599376415737535 16.229587539461587
206 -2.55676190713684 12.564565069834693 -10.78023356781142
396 12.002025451843782 -8.236023716595325 -9.072696965772382
399 -6.3460567915734565 -17.555701305609006 28.417330025218757
1 -15.027861794276845 -0.30965062884001976 3.372737233033548
387 -13.63185674979853 17.702128685390335 3.572608168485302
398 -9.56287383208054 2.1578308371457116 17.7279806206091
6 -1.4278516660275504 8.660019227840278 -17.585288415260667
7 17.250785464263604 -9.721568720001358 1.4335955042090651
4 -15.836185503916756 11.201344910341266 11.509101608151981
9 -8.029842460644428 5.587596027834353 2.8701114692366483
198 -16.145216241788376 22.266568788742678 -3.9619754855852363
199 -11.443026914700477 5.933226801342235 -6.340105865825249
201 -16.14946973512288 0.4643206575773927 4.2528561709232795
196 -27.063730277673574 16.814941501209766 -12.098905130545425
205 17.125197675049538 -22.616701296064868 -27.61714124311832
391 -15.621010587787032 10.60432218551986 -6.421355712738095
390 1.694599191487142 -0.29678495199636484 6.972787786206946
393 -13.500771670029023 -0.05270413430521774 14.73836334589269
395 23.2760883699794 21.126380504788436 -4.146335611449382
388 13.304120163847756 -3.3547447839510722 -21.709120937577286
397 -5.372311992931543 -29.59488207975209 8.964271400558049
65 7.469509867675025 -21.269493031144265 10.826441737199643
76 3.2331569188163196 -14.794266911908622 8.38912292244295
78 -12.252583915718855 0.21618454296485198 -18.12190023753101
79 -12.975576615770123 24.90085678119494 5.711015102027749
257 -7.540779384521617 1.8770662995176273 -19.734897726534722
268 -15.617140371314033 -18.610220084652862 -17.438126360956375
271 -30.00332548987946 -8.79466400890532 -28.155478458288474
259 -3.6420715344669894 -0.674913855043172 -21.83595119429883
270 10.902391438833842 -0.29359197121728514 7.204457020147257
449 -20.611340176119338 -28.488462975742667 -8.032492166267087
453 5.321420790748734 -34.35801621442124 -8.165434094971106
460 26.184445078969595 -24.549428095571795 8.02969283307766
463 4.073794139002834 11.199615200799615 0.20156484756365936
462 11.627633961247206 -5.495816848740857 7.523337150816432
70 -9.932547254628135 5.374367838654743 -18.421008810290108
71 -13.67595677955657 -23.377481033706758 2.2793576127455997
68 28.08858416678981 -0.7940000036642201 13.383203604860677
73 28.853465442111467 7.510711053044885 18.897613048039783
262 -4.690544705957378 23.18247654501055 27.48490892681752
263 12.703036507465056 9.930248430634338 -0.392829671470279
265 -16.17149983746715 -5.401902398172565 5.373296856990528
260 8.152061427529047 8.189701596052373 2.5828377079584066
455 -11.53915094133283 -19.529208565230096 -1.2511123430004423
454 5.9981913696270714 -7.757171065904886 2.2533149837685147
457 -15.91835373068467 19.814872081114125 12.3838337063613
452 14.942109221509911 4.431249185272848 7.528266863376779
129 19.264300611051247 0.930680136894483 -6.4391859750725855
140 -31.582670154325363 -11.950364749320508 -5.960958272083872
142 16.75086775179972 1.5226249619506342 -27.199696868859384
143 1.094314122518091 13.601210757034618 -5.519889294791009
321 -15.32481849547551 -6.6635635290076305 23.258745820069574
332 -17.316841443794857 -33.71175212161203 -17.520647750624953
335 4.332588080403827 27.309223083221937 -9.910392086864311
334 7.96162535888629 8.443104420772913 11.678928003473109
513 -17.833892778574107 5.23854537870761 4.931713794203994
524 6.611091057178901 8.315548115637618 -0.34000175606187905
527 -20.47562049538314 -13.645639055503581 -20.057038016173934
526 27.258432695867885 6.337041049021441 -4.499314226434268
134 -4.106389359600704 -10.7378541746364 16.924958443312384
135 -6.415055039650827 -4.654210309574765 -1.4879984722292612
132 41.392279564658025 12.725283080957514 -36.60965820446541
137 3.5993885920261195 -13.129379018935674 -14.594474243286188
326 -9.719630814471007 -3.0630278044548906 1.3780902422268866
327 4.924124739660605 -18.15664053173769 12.955696437727065
329 8.767584324157616 -26.203022642384145 4.106871840782257
323 -27.563689165011663 -3.367579096422141 -24.315179119023952
324 25.52363899493995 -8.348858385086357 20.288335770536957
519 -33.279596622351534 -17.09364110887572 -3.32244995732654
518 -19.500152258713268 -3.204821907629244 -13.006613931027422
521 -21.41514163653373 -6.541589617337455 -17.698714780832262
515 2.3433834887594482 -3.6501463606454547 1.266461332280007
516 12.040381328683932 16.908273573144953 -9.381500990685906
12 2.975678822960239 -10.76387779024495 -41.06883496060464
14 12.370449359902452 -10.679169574241174 -2.316025319727133
15 17.51211897447452 21.116574300861142 1.4035768364796068
193 -25.85098781674601 16.394815464259043 -5.799974957901577
331 -19.72843741280636 6.937561594559602 1.912137690465705
385 -33.80401398320014 -27.433519170073673 7.599544204686884
333 -6.221281846206126 -3.2840473742385665 1.0330672010190973
523 -4.80810933632253 17.36654571669741 11.42128618003826
21 13.338692039466254 -5.322036748563465 14.308109463553624
16 -15.678612092922345 -32.01605717917412 -24.504213377568444
19 -16.502410842001844 7.217499830418837 17.685645767174922
194 1.577943879000092 -27.60073726031954 1.455356535770104
213 -6.762829032077324 9.756024046198625 4.4456336830198095
208 -13.759174524085848 -1.5090721053392548 2.37269103781053
211 -4.411737051360692 2.2825735610399986 -15.342260746750522
222 9.716698008629608 -33.19760575435297 -8.90702327386776
386 2.6741466905599265 6.9265089044308485 -7.062633057479132
400 -21.21904285791045 2.089300590225365 -7.855604087402695
405 0.5281517188652695 12.351933566984309 -0.9406859878618922
2 -8.194227101177898 0.9504240863053921 5.502204558011879
403 9.160288489990574 17.664694361958688 4.346779386491896
22 3.0092469152311327 2.7699521308182358 -2.4831010949970915
27 17.219117154747693 -14.116204541186656 18.530530632725377
10 24.48440957274849 -18.72155529068652 -13.466635062469068
20 15.732592551472086 3.855197231866084 34.3234012405486
29 -13.222387653640405 -6.008345531512389 -5.792106749061295
200 -0.9309660475176563 -2.974143541016992 9.692643608521585
214 -15.172905911864929 -9.175674774883978 -6.272689378587873
219 -24.36051061939186 -3.886645555384679 14.020589161381945
202 30.77231254664805 19.05355073133491 -1.5249690176192456
212 -4.0904316296551695 18.969162548837733 0.574867405945333
221 -14.342853955864589 2.1265366930700362 6.753662823480357
392 8.920557708783447 21.1047123774966 17.95342112669586
394 -1.368924978973831 7.149213998862095 -14.490928332452233
406 27.38708467033512 19.530924401320558 -18.70393004813507
411 20.390990717943275 14.310881226834796 -23.045189532066782
8 20.280704475720285 -6.082817354219627 -5.604211332973272
404 19.165153405520698 -10.501625212796156 18.158727621711805
413 -3.945224635901932 -23.681953944384034 21.908893719937176
66 -1.8581865161165785 6.119685641929101 -15.495664458174097
85 4.912722514287892 19.785585019516585 -6.126255642708744
92 -15.62809813309124 10.88228813912947 -8.570971318535621
80 -2.952185694036393 -6.174670310683312 15.58856903869991
83 -13.271840450875917 -13.996551331692572 -5.590886946544488
94 -6.933062253087907 -6.849163151126811 -0.7327621240377856
258 17.0232387130523 -4.696564840123524 -8.300899166713954
277 14.129254322301442 -15.45099778421651 -31.506726478407284
284 9.118208357202688 16.21348990691001 1.99728487054054
272 -11.404296554334497 12.393483803481509 -0.48298628077954436
275 -6.5424198626140075 -1.1088782681835887 -14.14598547678885
286 5.4040592272083225 -8.91634824207406 -14.060632686527772
450 -4.761606716585035 4.297516559343874 -52.43530166098887
464 28.63051511397701 3.1887699033883554 -9.433985260111777
469 19.02674904274312 -2.519485319733248 4.241939527119471
476 9.899042686419605 8.882522519196671 -3.1494468196605188
467 11.684923570857356 9.242263368428898 -2.4236093574983637
478 -12.64687075563673 -3.2479924901904886 -3.859568151956523
86 1.3957759460889752 -12.957609380761305 -27.667372380034287
84 -6.473356445437627 -11.051915314393817 -8.012353724475432
278 7.772564839630433 -13.516593562469744 12.717269178609875
276 16.385893672518293 28.71693598106762 -0.9333006330969925
285 11.79512796137616 -4.270970875995636 -26.766918241519594
470 12.036307230439686 -3.4429888566585545 -3.9119171452869854
468 2.2954942125426396 -3.716646622989799 13.072471513338629
91 -18.585468347482635 9.25705937685627 9.43760471391293
156 -3.7728834524180193 8.612587708152317 -2.4410565628382397
74 -4.971743172776055 13.992321004275313 25.932613747217747
93 -3.6084653697825715 1.1984640684094028 -6.155070151433354
158 8.42020731741686 -0.21514242128867644 -16.971019178923825
264 10.763718128357663 7.380157548342081 21.339510211661008
283 41.51164149262573 -19.304249881254197 -2.6687318865007383
348 17.20177246066847 8.958265131015764 -2.9330598569666657
266 -14.903153945131983 22.32054922024336 -4.733375663007258
350 8.725693086755266 -33.76432677154354 17.37677639529737
456 0.6909136887154435 7.613448645671557 1.8871735303710677
458 -30.91248276089782 6.994277339714941 0.16001807993017644
475 0.4858270983445756 13.915369707651422 -10.364534154169114
540 -18.35753102247887 -15.691717246111304 -0.8330407786331933
72 2.877776222108404 -2.9226318018599686 -17.198159540899486
477 12.75340150275132 -7.879363025479493 -10.836328664492973
542 11.647727676375254 -8.89676438871443 4.383798301808227
130 20.58420165266244 -22.746581514806323 -4.84727655396663
149 -23.996121299220977 9.345228990642177 -11.017329257870921
150 -13.092450907808193 5.920625881761823 6.638641720831966
144 11.325857701151932 5.832856642446435 -3.7460293323121427
147 18.98141754157047 -13.400059541460886 7.391277356887686
148 11.741850569011163 -4.40517415199137 3.6712255887578973
322 -7.92689857587159 -18.37947819156864 -13.10213535271641
341 -21.931154477930097 9.817624246121579 -11.385639243249253
342 17.540038066892862 15.340478159653955 -15.20368078849016
336 -21.588729609916985 -0.5501339556619343 -2.5596505074189313
339 2.6687521735957085 -21.761896699535004 13.759910892519821
340 1.6241631052358259 8.830981688164872 2.5656762753404943
514 15.312918518241306 -3.7376363076326062 1.5980204978262016
528 6.928109861854743 9.744117054329827 -5.630465099406153
533 -10.062836920810785 22.22828460440949 7.92381706282902
534 13.182500436900911 0.46663419622451907 -7.28019498229122
531 14.514089673690785 -19.676090460307314 6.422365878572947
532 -20.9172773552143 -35.75470331819185 -5.295988326297566
28 1.9085431850232883 3.8672353409440414 1.4613568959624577
136 30.565834445723265 3.0482462779048527 22.785962135882894
155 10.902752850411892 -5.042541646325462 7.917246707650814
30 1.5376366918641875 16.159368769361617 22.53049515570494
138 -5.644948302226497 12.95807143442435 -19.311220118767295
157 8.924323457828251 7.214708905371069 -21.131469413244837
220 18.901272176378516 17.763320373078106 20.375138197570852
328 12.156369042803224 -7.0241687240048 19.955590329987924
347 11.743315234434192 -2.449865408388326 11.92690152578743
330 8.332605005248084 -18.55648860393359 -2.381683898023004
349 15.286566965728527 -9.44039320426487 -1.9006199161421862
520 2.74460158310028 2.7009030578757067 3.932160191784496
412 -9.626049019326532 -2.609548442668255 -15.368441909008958
522 7.880695862490271 -21.80728883016796 -22.69132539153863
539 15.371252996541159 -6.559707880685831 -4.227270831391327
414 -24.38993063970672 -12.479586296578383 5.156620174461113
541 17.618770324594312 13.679284745757709 0.7078065803446328
37 4.593244628930547 7.339503235815156 0.11756949780038098
31 3.657746162565046 -11.096314133283931 12.09971271361974
32 -8.28168740481035 1.315088735824929 -23.022040933383234
35 12.568065771751986 15.015500363937909 -1.0886058019905336
210 2.7759492331397753 17.256523615337457 30.749256516617493
224 -22.185555141542707 2.3957753662504326 6.437052382915308
402 5.731110976728398 -21.239644491730935 20.794784151191156
227 29.337494802467035 -7.818677887428391 -5.387272176115338
416 0.9647379538374468 0.753831320829128 -0.384810133586272
18 18.905098389401292 0.8274685644163512 -24.934536389072036
23 -24.273415854567503 -17.09297348592481 2.0785425846263146
24 -20.52967304383996 0.10824648995715234 22.032012965657156
25 -3.671774587696332 -21.354480763770663 -24.86116412946013
26 -1.9920706861247595 -3.1157287599506893 -46.97748678529416
215 -19.977126870147845 30.933901253696458 14.149551095386515
216 -17.71876230971818 -2.761709018863446 -12.30413082747783
235 -4.723409936900636 -5.318706123677572 -24.79555214267087
217 -1.0013060117320551 0.07125705172140785 13.083572214464338
218 -20.356162871510925 14.163013431416712 -26.145908739944698
407 14.717517198275724 0.6176762135730937 4.231777091959844
408 -18.958135969259033 35.377202568043934 10.530998272491315
409 -5.281978439883013 17.20902556353767 -14.446126762623413
410 -7.948715003612533 -5.546784764717271 -5.683298002756175
429 -22.434569156759366 6.5882428847316845 -1.6446481234454795
82 20.345379401423575 -11.051833466370558 6.20004239938518
95 4.204795487678838 -9.057333109328743 11.798784266743734
96 -1.6123085165654496 4.3849133822063235 -25.019542173807096
99 -34.729236727460346 21.958441704128855 7.624442656743399
273 -8.33020597046158 24.52442732839716 -18.953739828994824
274 27.083636724853754 3.0629136509540875 11.444652049574943
293 14.326013799028967 13.336286611829482 42.61742909729391
287 23.578946044035966 -6.435448514632012 -0.29553290939643495
288 -29.528570580154444 2.2937187814741655 10.722962094321925
465 22.375792326420978 3.176199289290738 9.852278235558567
466 -10.141381912617385 -28.519807542363576 5.363917199949709
291 -8.273289610387572 8.410887211003233 17.18871087946839
479 7.884064515346641 2.387112692729645 1.7557184868847353
480 8.472347366865732 9.934017697799645 -9.355475789396044
485 11.158418706708835 -7.7219298745314235 13.667281391824833
81 -22.404904371593652 10.315747212372854 2.54020364213885
483 5.29323191265646 -21.27688636062427 -4.435968836734604
87 -9.836810142104257 -20.98643419655666 -28.467673448140648
89 -11.404330775240574 5.365101677466976 -11.208394558452385
279 -18.021673102857196 -1.0088169722320381 20.98522264291272
281 1.735164854842236 -6.762520835246751 17.220137012646774
471 11.025568346632449 -12.80081215086829 -15.094960476847346
473 -2.118428603353594 20.287544699404084 -4.148420933735797
88 1.9781236911766915 -2.7463892856397525 -12.827696421753393
145 -12.850647637734339 16.243926062058552 -2.754896308203643
90 5.768281577360109 20.98203738440584 -20.482494058240437
159 -23.073178819578573 -9.01819372430143 6.849079023739393
280 5.995076049321195 29.649480407263813 5.935423565660594
337 22.214251780073695 -1.778168627229634 -1.4094473257951856
299 -0.30703248003355516 6.7102090138244765 -6.179305600335404
282 9.04504040346475 4.396818909654003 9.997585852568008
351 -0.6320553848000897 -5.90130642255914 18.48494497130474
472 -1.5488039325633467 13.600075945506514 -22.80902036484011
529 7.721788788508666 -10.665917714331528 -4.231661622057423
301 8.009390120494523 13.988826334882056 -3.5916271736720224
474 -4.321866979043246 0.9062364965126665 -22.723272645084073
543 -24.581961022825638 7.966790354389945 2.6602391510041015
146 18.118162623058193 -37.33924568642547 -8.74997682953024
153 3.94628730850545 10.606255882916443 -23.774678479854106
160 -13.490961421107375 0.6059514255391737 -0.5479105513610444
163 1.4990888600503596 -0.26277156084379155 8.546190557484094
338 -22.51851545170325 -24.105974719087826 -23.81358219355162
343 -2.9619163916801776 24.25092783123696 2.6569484331057285
357 1.0951104925715223 -29.531517132303385 -21.04010694744679
345 -14.019384706098217 23.111566059834967 -17.065109343043407
352 13.324407128231709 10.881144765800958 -27.33803026424105
530 -6.641814369624893 -5.56992534086514 4.240674551481093
535 -0.7005122103193867 -26.97683452378591 -34.39170153348889
355 -19.56509193589332 -11.868788354766634 17.59857707428569
537 -9.227652749394561 3.4470036825741626 -11.099273684485704
544 -7.157501800640997 -2.0295471242990057 13.623321358037181
151 -1.6423427228160266 4.714453041743321 -7.986694255426288
154 5.91063328936824 -0.9343420685351146 -3.2025158912169007
173 -10.191354048833219 5.372377495576813 20.94284781261197
209 17.893392774575382 14.241376155951057 7.3681823717008665
344 -1.616152923856515 -10.647801053003628 9.957297084812339
223 -22.33694464929588 4.198780217132045 15.275297340858554
346 1.2891917186778792 -8.429631883351348 5.8694475535028925
401 16.60976174102012 -1.231704307282152 -6.728377949057327
536 -36.51288818617133 16.99290031794869 32.810108242509656
415 13.15745891352824 -1.8044715710333428 6.479827068930956
538 16.219125172760585 -4.234383516951195 3.3687680578948256
17 7.782534460821055 -0.8532675416626798 1.4537409952421716
152 -2.924511873098867 16.866227880539814 -0.12084508635901098
557 8.103939735559614 -22.05273012099487 2.6131322842049163
44 7.525107584802871 1.265180173277213 -10.006927312620327
229 19.295862387327283 -25.68473759911566 3.8915712166547745
236 -10.023863992590282 -22.782457252891902 6.0113949609712725
239 -4.629247733651988 7.159402212299609 9.1996410837794
238 -3.4934501821314443 3.1616637898811275 -12.754838851961777
417 -1.0802798672874627 17.504642808277065 4.316631792534628
421 -6.75192061859348 10.188067573632264 -15.991663916283894
428 -23.584581297832266 -4.1176785190378755 -19.05234795044301
33 19.005008471563194 2.526630400998677 7.176035250045365
419 -12.57902181981465 -18.053996954552886 7.756931743982361
430 5.6394009047392855 -23.646626590115556 -13.997156433873227
38 -15.9835060156547 0.5595657646540165 8.641059605281887
39 21.391857691380718 11.192283569475073 -31.103107739373023
43 -17.65766242096731 4.942055010225485 -3.6742493252039004
36 -22.664113644946504 14.665786475894636 21.34879428646752
41 12.337881787373142 18.015211351909947 6.482269937863933
45 -16.27406844208215 -7.683254985098035 9.881188738529872
230 -4.929265333897594 -3.895097093015225 1.5031166198595312
231 -6.787505832836947 -22.16802324765445 11.305342814182424
233 1.2880043781416377 -8.038455511716249 16.180008678366566
228 1.3468036485941606 4.069702145461024 -0.9533899478894104
237 -26.128097330354752 -8.22526962677925 -7.537008567038454
423 -7.144742126591709 14.08638967553528 21.47272024447504
422 22.05138748096577 8.757257532864072 1.9714815439774516
425 10.31606292307009 24.663539912372908 0.20282987826174143
427 20.50389626420168 13.262206267883816 12.556643794955614
420 -28.739777982110997 -2.15199730107557 4.094607533743094
97 -9.772690908377381 28.891425428612617 15.131290390939148
101 -0.9803906527579211 4.736502173659126 -5.897583651812689
108 22.996964394717 -10.38675642780352 14.01730207673543
110 12.520734590124341 2.046096495963559 -17.723625647901216
111 17.593096862922664 17.89566633109722 24.558566991769375
289 10.160017696529737 4.5202345988377 3.3150256563177174
300 -14.13292131270216 9.441172424039225 -5.509759073724383
303 -0.3776416697208632 32.4442635056084 14.903798881005955
302 -2.8451095179899837 13.690031181596488 2.9302952750646853
481 25.916837952514136 13.995429046550965 16.229643321407778
492 -24.500232808775547 15.95430729047911 13.021278726857425
495 -20.954387837037615 -26.686131436578403 -24.568325042187457
494 -8.671687752981958 0.36239834869953935 -0.029037975514414453
102 -10.24698303303818 8.220782673549946 4.525008914313724
100 -30.141265086606744 -8.975584642783366 13.186993827292108
105 7.99741803589766 20.15484045394118 -10.89248541833152
294 10.89490747480314 -12.130996518681588 10.68508069224016
295 8.535756574576085 11.891675589843448 -0.6263698153583446
297 26.358182540838147 4.476118913711556 -34.01593942651686
292 -13.042939949685486 -4.726514864693639 10.064827501821958
487 -2.7048339697036696 2.9403240980530474 16.920186883170658
486 -17.171246647249692 -1.5155285447108968 2.255150774536521
489 -4.058318719027765 13.269728697130763 20.93285819770836
103 -33.51603863301208 7.959968830782776 15.18515436251764
484 -30.288453396061502 -17.98248486451731 14.2446728227999
107 10.287200642780038 -7.829531895160059 11.851213520656867
172 10.198863161925141 15.568778931455316 21.17843970599632
109 2.84084568872025 6.696239143657751 4.270639848344744
174 -1.9858207744121066 -6.472292577877021 -12.108173678812001
175 -12.065536868074583 17.40800294339156 -9.094463929578362
353 38.70730583530109 -5.4175764465476375 -21.918172297233824
364 8.801910518800872 20.028635512952448 13.214950816004869
367 -4.0402644480424605 -2.5633734816110976 -16.35717239220558
366 10.510823242512533 23.760929423678654 -17.891376650418938
545 0.19855260197137634 -1.6973487773157632 -5.445123882008005
491 -4.435248323542077 24.450497898682627 -19.510644414166133
556 -2.9414211199324822 21.802564209305128 5.692855948481989
559 13.768810786092487 4.485736535432411 8.837195571411653
161 17.812250400883205 4.478772402061331 -13.124796860436268
493 4.10357907703554 -9.84288963154948 -20.2600870371781
558 24.219226824422417 5.766098906528962 7.5170575450069785
165 -4.037184404445129 -23.730464475165107 -20.28739636382808
166 3.993099954720384 -11.0227845648291 5.09811179016497
164 9.496605791001404 -25.492320464822452 -10.869530953973891
169 7.3054354452457195 6.478072934208077 13.595597255931848
358 -12.578262931078523 -2.211598807682354 -18.535030433739113
359 3.780727049309453 -6.132793234068432 8.902870147810672
361 -1.2084536762653537 21.855730374632458 -0.3753320678331954
356 -18.165180546881235 -5.574082880857128 -4.031498621103995
551 26.061589987167274 -8.238669534043606 13.990343350196632
549 -4.3304430954552355 -9.792741277550427 31.239054958679596
550 -15.223733578450977 -11.586434302646472 3.1405845226703875
553 -4.019854376985532 -9.129140368717922 9.745418800105261
547 -6.79207230294309 -21.48721453548883 12.28795816534638
167 -34.719147839378 6.965219064134903 -17.867702139900636
548 -19.009458145133824 9.412359891265107 7.77133544655129
171 -3.37017110319251 11.94598351642327 15.758155256585852
46 24.219172349146778 1.5103344759789483 -16.575584500523203
47 4.616405257235652 12.331498576044186 16.287925164770297
225 -11.266283609650884 -22.75534392414563 15.16984780151765
363 6.525773599099088 -20.33031057630288 -31.465897439917022
365 2.933371633183444 -17.725850753166725 -10.46571164234102
431 12.09480689534534 -6.0092255775873795 -8.924804984131159
555 2.804540502071024 24.098396136733736 -1.0494302938911604
53 14.794599276504705 7.277979782574899 -3.46310914192513
60 -7.618734458757904 -1.9051775535235511 7.922631675943871
48 -1.2155600680819643 11.389463376858204 6.726244593652949
51 4.050114631444386 15.120127057356479 3.5817517497636286
62 -4.114018415447462 14.708875160825606 8.848117794947512
226 3.4653280362165324 11.748495109667262 -9.758285865361698
245 -16.817692223168144 20.60316122438583 -6.719814349544905
252 24.691350551625966 4.896385955401725 -10.412338054484477
240 14.473109410558395 -8.111349398989557 6.307402341688852
243 -32.09176045754468 -14.09083371648949 -14.406885206422247
254 4.067846325737089 -27.813223250560917 10.645385965139496
418 17.42033062531618 -9.51345136970747 10.815686984668572
432 14.624396298068714 20.211105724989896 -18.66484496811552
437 24.00472242371743 6.143365657084002 -4.491287279992224
34 -11.527807475682007 5.779326420872422 8.792033894347798
435 18.75551213174589 19.324442631831573 -11.601275301526128
446 -18.722135316209336 6.476233767379328 -2.2251117061977177
40 -3.566589512208688 15.20845090331332 -3.6696005881680622
54 16.14791669322088 11.92992368353597 -10.518425063577443
59 26.70746271531977 15.010598121671878 -6.690716604776736
42 -1.6217394551500883 -6.886211155474118 19.88756881317134
52 -13.327501512309098 -2.9660745466908542 -8.400749586032488
61 10.394626470116874 9.862367733325996 -30.99759739096659
232 3.6930273257459234 4.772493487306083 14.710912646954348
246 12.206942718291316 2.860908447933251 -30.58031471157024
251 -11.885518580942398 -8.172582964018245 9.963075110260503
234 -27.590955581245566 -2.978012023013962 15.798260476582104
244 8.227581351206373 2.8077012785461783 1.4171765556315823
253 6.382219282270823 33.29955907670476 1.7542170724120048
424 12.347148907288192 4.263997206034811 -20.5081022186573
426 -5.302292845274389 34.548315368320594 2.0273953199631087
438 -27.31402848075414 10.525341036947673 21.16926648775651
443 16.369612960972724 -28.116664147243217 -0.4575317604700986
436 -24.316145010744094 -8.368247159380223 -1.1729701990887718
445 -23.715504220634312 -3.903430529682751 19.506688295409035
117 -0.3826695132428251 5.251632161382927 -11.636962168895842
124 -0.9825581045952514 -23.40423906184011 3.146787426959098
112 20.67979041882085 -22.163702493381365 7.476823005913148
115 6.757730515306025 17.816255981335477 1.3265659856663066
126 27.843924116734655 1.79337311438753 31.41229081017284
290 29.436397277548117 -7.115388853233847 1.923808889906679
309 -18.514810808528296 4.05094802617695 13.976318835616214
316 -0.7303533152846207 18.865162319952073 -7.033229858747406
304 -2.0300478406639413 19.942246333458556 3.9379482904892544
307 -1.0817536089635298 5.009253435875848 2.4314822024697973
318 -5.202469420488447 -12.298662274725615 1.971651151818096
482 1.6816171511103808 3.4436679864774287 -2.2892570094994746
496 13.59888208925641 -6.3487064914935605 -2.974333516451106
501 7.374994571303844 7.219923447474051 -13.650415573812312
508 17.553648232592884 15.077007894951466 -21.71770043196571
98 19.746578963723575 5.013468229998628 -19.516884895825253
499 30.457443449455837 -0.06467863488261594 -1.6091266886104798
510 -12.632783945765414 0.7050861333099615 -2.2692573099277094
118 -23.512926044457817 -5.015535199691025 -27.10768790126277
116 -9.63896274016682 -2.2777581710696313 0.30519950125218764
310 0.17961204066090758 -4.998295186354863 4.656263481512327
308 12.406725535174477 3.734732455885806 -6.176509051023034
502 -16.983291325675005 7.826038013510976 -0.6940474404691803
500 3.246299825873263 8.455292174850017 4.903879362789683
123 -6.089498657650561 31.200046558353844 -12.056875535847531
188 -10.548287426710083 3.7992794313101514 9.306017935709429
106 8.002201236591993 0.14941858415437506 13.216499219895361
125 4.95270968575514 11.048884665252748 19.285803264741848
190 12.45812708160107 1.1436445012021381 -16.270694972371125
296 -6.314318843510064 -5.165086945912224 5.85556935489753
315 -10.727366108984697 2.813521631989532 10.170776002905459
380 -19.738168640114026 -22.360103642979823 10.068917346384127
298 0.03578169775418547 4.720238418827948 13.174395735508444
317 -3.359636478989451 -16.914135691170856 -3.9559036170325785
382 -11.319672691213784 5.709725677218023 -16.110081278134327
488 -0.37108204849623305 4.33082743180973 -9.657576049084515
490 -7.69048739970149 -10.155394462311463 8.307757005570734
507 27.40039991557376 -11.485398931207726 15.30419860340623
572 1.5840525066200581 -4.824679856200412 -5.705812620141304
104 1.1522804249096847 -6.586154717616178 10.739490079323794
509 13.829426007683026 -3.8819311294470973 10.109218711348042
574 -12.25252653158948 0.5856392698578141 22.068765570560622
181 -16.388841760487253 7.5643458637672145 -22.00168265591514
182 -6.836215056355015 -4.268701905040079 2.5998709977851737
176 -13.162028266522041 21.980879431588097 1.9872545573344669
179 -15.832813596290704 27.823631936291726 -35.37864211892478
180 15.784234051628456 -0.7119486637524989 22.39584885263099
354 15.174558304768135 -9.044811979856934 -31.22098585300229
373 11.131176045431095 -24.239394535909963 7.0148989840066545
374 -0.4511469393204498 6.692607361875532 -7.169876680539331
368 12.608634171873453 -9.383921040129785 -7.6370680998836775
371 9.258690943792988 2.127599676909429 -12.54490186495223
372 -2.3704521889800025 -1.6696851187584556 -5.036976101676778
546 -29.853921892121033 -21.702891475930375 -8.173642297020251
560 -11.239744906930218 4.737211311010156 24.270494120166333
565 -8.178286648662233 13.770074594941606 23.912077647298812
566 16.049758089029485 -20.073805810453837 0.19109469368924875
162 10.291320886300069 13.205573947903284 -4.9111154518068325
563 5.152629247345112 -24.00789949480741 -6.281596834423431
564 -1.8603264245184143 2.731894045803939 -1.7653881334050143
187 -13.904273803490712 1.09500714223559 10.869559323283756
170 -0.2944476827366005 11.333170718845194 9.05606400538422
189 3.437906913336727 1.438907079448844 23.35696282980339
360 23.109419251152765 0.9853064383831069 6.9563462490683365
379 -9.127738998829914 23.319941907614187 -32.84219436174516
362 -9.143909681892884 -34.72629645670786 -3.810718113735384
381 14.17231272290127 -5.861056094212375 12.745677694502534
552 -6.25307827954373 11.68334333421775 -7.77714238859923
444 6.487409604886068 9.187013167433943 -26.96187845940853
554 23.049023495886864 -13.388923795209521 26.704638241118534
571 16.519985152754117 6.507225027791552 17.118622073509854
168 1.2823985265919047 14.919464513844847 9.840800570410755
573 -13.20906999755082 0.42589044149187283 0.6163355125863866
49 14.775305276512007 -5.594553759724247 -15.664818736398571
3 -6.469847408196984 -14.456030390754986 13.817945736821923
63 2.411447033777485 5.429749290977846 -13.330829326025759
64 -41.489320972963476 -6.296491536126207 -15.100026797522098
197 -4.0328779481960275 -11.793713431294508 13.720260550102758
241 8.078166424083474 -16.677273795801007 3.376579999260292
242 1.1798913012417585 -16.31997513700918 -5.768372384043584
255 9.014803584250304 -22.878965093832687 30.868480649833835
256 18.58581268923409 -16.00712395002047 -0.31491912237649783
434 15.076789129026455 13.915011582809184 8.648471369075272
389 11.169937532435915 6.070195548801326 13.429260955352705
447 -5.249485747476649 22.651512787979133 16.499804131521152
448 -4.039084995291591 -14.864595916263415 13.89538409671622
50 -3.984494933761291 -6.315089434627511 9.36321103009169
11 -10.501744994584232 12.264384789505492 -0.18212539317251988
55 15.53542185372891 -4.031963567089471 22.194630603396348
56 -14.58924207585789 -23.641044416788972 20.866077653304842
13 -20.131928860790023 7.93673836568018 -16.543002505175235
57 5.87539333347749 -2.8026730897663574 -10.560152763750471
58 -8.525503340801208 29.56262378218578 -14.708014583325665
203 -3.1192260830842824 5.718728033813483 10.630416183407158
247 7.2845058036278925 -8.98515662275865 33.28662960608976
248 -1.8461956454736188 21.738250702610827 7.416403070038275
249 -2.037194480357465 -9.913045988127044 18.52270761177359
250 2.8412723420914148 -14.22915933539686 12.93094653285465
439 11.108799765896498 -16.610133907365604 -13.59034821328771
440 17.58767734831947 -12.337316214974118 -30.041025209589627
441 -21.44609010713795 -21.638066466713553 25.950865601245976
442 12.079036445979053 14.350645319856906 32.50255937225339
69 -4.328222732218467 -31.53165499715818 3.976942711678482
67 -3.0031106067741296 -0.8807865514484977 6.010995467423702
127 -2.1765822991797346 -21.622854326521875 -2.957992075027366
128 -7.135937001116679 7.0425966478989075 19.56787819039835
261 15.658223046159327 -5.486848420207937 0.6341706626886116
305 4.411181996346701 7.738895029530884 3.2142864847818786
306 6.1390946672056685 8.25749615126178 -8.749970027864654
319 31.673294696110037 1.2502274033148664 14.639728372462491
320 -5.907760092476444 0.46633229027668455 -6.432493473366865
497 -15.540882755235762 8.867324782392952 11.752546260758683
498 25.05610385966727 -36.52850388555123 3.7139780253352317
511 -24.21455985888201 4.355514373604741 -1.831700046942885
512 -28.35893230627994 25.000297154751472 5.458196135276798
451 -17.537839685284812 -9.792147928334195 32.872360641001364
113 6.097196058110707 1.0182948952712363 12.061975703600176
114 -3.532769297367492 -10.029464971996505 19.127096091464978
121 3.717883868618866 -14.09603956266086 -9.873230696506987
311 -11.142904570861353 -3.7859497087994782 -6.448016648327441
313 5.176100754299035 -0.039263451639030306 -23.80029194684242
503 -25.659099437396108 -22.875969226046347 20.327056287063467
505 17.138962306283045 30.823204853073978 5.734781178149575
119 32.7445185398749 -0.6232795769842111 -5.25724957011689
75 15.419570114882099 -5.220697414257096 -9.680020134238138
120 17.339710949526125 -4.802556249726904 -2.5974571045355015
177 -22.862261396230036 -29.483072378399275 -21.105072696547534
77 -8.640703813889578 0.42526894946450366 10.333943415841645
122 15.792567474485002 10.447048949418418 4.513707615059076
191 0.8168843190170973 4.035454214329515 -13.567263364303749
267 0.9458101287297366 -5.645482811461358 2.7754081690754306
312 13.876844536360224 -7.898648413633115 -4.838331810902747
369 -16.08349300825611 -24.62988151337079 -7.355132323875014
314 -14.90132148764039 -23.788185148336073 -21.406952308348583
383 -22.27901515121842 3.855292822457123 13.69524263698501
269 14.161866488863977 -10.499215793750123 19.922397246131258
504 -7.36144269625048 -6.476636079733516 20.7978692705131
561 -5.113906342474074 3.1421016581801466 26.180037152411195
459 -1.212273410001937 -6.359076302698943 -0.7710671248976007
506 8.500953072671674 5.940709163464715 -8.985588932711183
575 -16.456377616864046 21.388360038266924 5.801752090790968
461 -21.75223248559649 -11.650437287171153 9.929163446129008
133 0.6198899324955832 -17.992100856576624 -7.375047884719501
131 -21.21917056438038 10.29898744257301 5.327201529825215
185 20.311203302282756 -3.818907671560272 -2.21131361348217
192 7.751381037546652 18.518578140375332 3.6780211333066766
325 -21.10015397514227 -12.753818419902478 9.933357415080428
370 -18.952584018896573 4.934918064133281 -13.215730475414782
375 -8.923088912842797 -2.8822629553824104 -11.5067208702668
377 0.32581222664008963 -4.523042923556208 11.959833014746495
384 9.334291306572018 -20.88533596731827 -16.849958152462577
562 -7.72797960153904 1.602868409140164 6.8118477522299425
567 -5.481580555433471 7.853140257435671 -0.7210308446331695
517 3.9587779725337318 23.836914555818545 0.10341555387941703
569 9.73520412967522 5.011372466992143 12.780111937437905
576 15.136249868193831 6.3529772774632525 -18.45910092493633
178 -10.056905530570885 12.420369383230906 5.369003988645607
183 -2.9493636635519933 7.24877467141122 -12.088513885593903
139 14.220913607557275 -1.362374736661794 9.88953528556994
141 -14.93562594892475 -2.558390499566967 22.218052109092646
186 1.5953616719855843 -28.057139641550947 20.28149787113629
376 6.769200473228587 -24.250831152120792 26.781762432606133
378 -4.882526937106541 -6.259740197778397 -3.9989193070632076
433 17.124310708283062 15.476904565246361 -8.512199389720694
568 1.7131035011215519 -0.3452860204256046 -0.31795242264828477
570 2.839465535960327 -1.239264226012926 -13.770377327834503
525 7.392236581483237 5.5640136895046215 12.79229669140326
184 6.892537717804896 -8.656575233582089 2.403016793292059
