(written by ASE)

1000 atoms
1 atom types

0.0      17.803725549999999  xlo xhi
0.0      17.803725549999999  ylo yhi
0.0      17.803725549999999  zlo zhi

Masses

     1      12.010999996910238 # C

Atoms # atomic

     1   1                       0                       0             1.780372555
     2   1     0.89018627750000001     0.89018627750000001      2.6705588325000003
     3   1                       0             1.780372555                       0
     4   1     0.89018627750000001      2.6705588325000003     0.89018627750000001
     5   1             1.780372555                       0                       0
     6   1      2.6705588325000003     0.89018627750000001     0.89018627750000001
     7   1             1.780372555             1.780372555             1.780372555
     8   1      2.6705588325000003      2.6705588325000003      2.6705588325000003
     9   1                       0                       0      5.3411176650000005
    10   1     0.89018627750000001     0.89018627750000001      6.2313039425000003
    11   1                       0             1.780372555              3.56074511
    12   1     0.89018627750000001      2.6705588325000003      4.4509313874999998
    13   1             1.780372555                       0              3.56074511
    14   1      2.6705588325000003     0.89018627750000001      4.4509313874999998
    15   1             1.780372555             1.780372555      5.3411176650000005
    16   1      2.6705588325000003      2.6705588325000003      6.2313039425000003
    17   1                       0                       0      8.9018627749999997
    18   1     0.89018627750000001     0.89018627750000001      9.7920490525000012
    19   1                       0             1.780372555      7.1214902200000001
    20   1     0.89018627750000001      2.6705588325000003      8.0116764974999999
    21   1             1.780372555                       0      7.1214902200000001
    22   1      2.6705588325000003     0.89018627750000001      8.0116764974999999
    23   1             1.780372555             1.780372555      8.9018627749999997
    24   1      2.6705588325000003      2.6705588325000003      9.7920490525000012
    25   1                       0                       0      12.462607885000001
    26   1     0.89018627750000001     0.89018627750000001           13.3527941625
    27   1                       0             1.780372555      10.682235330000001
    28   1     0.89018627750000001      2.6705588325000003      11.572421607500001
    29   1             1.780372555                       0      10.682235330000001
    30   1      2.6705588325000003     0.89018627750000001      11.572421607500001
    31   1             1.780372555             1.780372555      12.462607885000001
    32   1      2.6705588325000003      2.6705588325000003           13.3527941625
    33   1                       0                       0            16.023352995
    34   1     0.89018627750000001     0.89018627750000001           16.9135392725
    35   1                       0             1.780372555             14.24298044
    36   1     0.89018627750000001      2.6705588325000003           15.1331667175
    37   1             1.780372555                       0             14.24298044
    38   1      2.6705588325000003     0.89018627750000001           15.1331667175
    39   1             1.780372555             1.780372555            16.023352995
    40   1      2.6705588325000003      2.6705588325000003           16.9135392725
    41   1                       0              3.56074511             1.780372555
    42   1     0.89018627750000001      4.4509313874999998      2.6705588325000003
    43   1                       0      5.3411176650000005                       0
    44   1     0.89018627750000001      6.2313039425000003     0.89018627750000001
    45   1             1.780372555              3.56074511                       0
    46   1      2.6705588325000003      4.4509313874999998     0.89018627750000001
    47   1             1.780372555      5.3411176650000005             1.780372555
    48   1      2.6705588325000003      6.2313039425000003      2.6705588325000003
    49   1                       0              3.56074511      5.3411176650000005
    50   1     0.89018627750000001      4.4509313874999998      6.2313039425000003
    51   1                       0      5.3411176650000005              3.56074511
    52   1     0.89018627750000001      6.2313039425000003      4.4509313874999998
    53   1             1.780372555              3.56074511              3.56074511
    54   1      2.6705588325000003      4.4509313874999998      4.4509313874999998
    55   1             1.780372555      5.3411176650000005      5.3411176650000005
    56   1      2.6705588325000003      6.2313039425000003      6.2313039425000003
    57   1                       0              3.56074511      8.9018627749999997
    58   1     0.89018627750000001      4.4509313874999998      9.7920490525000012
    59   1                       0      5.3411176650000005      7.1214902200000001
    60   1     0.89018627750000001      6.2313039425000003      8.0116764974999999
    61   1             1.780372555              3.56074511      7.1214902200000001
    62   1      2.6705588325000003      4.4509313874999998      8.0116764974999999
    63   1             1.780372555      5.3411176650000005      8.9018627749999997
    64   1      2.6705588325000003      6.2313039425000003      9.7920490525000012
    65   1                       0              3.56074511      12.462607885000001
    66   1     0.89018627750000001      4.4509313874999998           13.3527941625
    67   1                       0      5.3411176650000005      10.682235330000001
    68   1     0.89018627750000001      6.2313039425000003      11.572421607500001
    69   1             1.780372555              3.56074511      10.682235330000001
    70   1      2.6705588325000003      4.4509313874999998      11.572421607500001
    71   1             1.780372555      5.3411176650000005      12.462607885000001
    72   1      2.6705588325000003      6.2313039425000003           13.3527941625
    73   1                       0              3.56074511            16.023352995
    74   1     0.89018627750000001      4.4509313874999998           16.9135392725
    75   1                       0      5.3411176650000005             14.24298044
    76   1     0.89018627750000001      6.2313039425000003           15.1331667175
    77   1             1.780372555              3.56074511             14.24298044
    78   1      2.6705588325000003      4.4509313874999998           15.1331667175
    79   1             1.780372555      5.3411176650000005            16.023352995
    80   1      2.6705588325000003      6.2313039425000003           16.9135392725
    81   1                       0      7.1214902200000001             1.780372555
    82   1     0.89018627750000001      8.0116764974999999      2.6705588325000003
    83   1                       0      8.9018627749999997                       0
    84   1     0.89018627750000001      9.7920490525000012     0.89018627750000001
    85   1             1.780372555      7.1214902200000001                       0
    86   1      2.6705588325000003      8.0116764974999999     0.89018627750000001
    87   1             1.780372555      8.9018627749999997             1.780372555
    88   1      2.6705588325000003      9.7920490525000012      2.6705588325000003
    89   1                       0      7.1214902200000001      5.3411176650000005
    90   1     0.89018627750000001      8.0116764974999999      6.2313039425000003
    91   1                       0      8.9018627749999997              3.56074511
    92   1     0.89018627750000001      9.7920490525000012      4.4509313874999998
    93   1             1.780372555      7.1214902200000001              3.56074511
    94   1      2.6705588325000003      8.0116764974999999      4.4509313874999998
    95   1             1.780372555      8.9018627749999997      5.3411176650000005
    96   1      2.6705588325000003      9.7920490525000012      6.2313039425000003
    97   1                       0      7.1214902200000001      8.9018627749999997
    98   1     0.89018627750000001      8.0116764974999999      9.7920490525000012
    99   1                       0      8.9018627749999997      7.1214902200000001
   100   1     0.89018627750000001      9.7920490525000012      8.0116764974999999
   101   1             1.780372555      7.1214902200000001      7.1214902200000001
   102   1      2.6705588325000003      8.0116764974999999      8.0116764974999999
   103   1             1.780372555      8.9018627749999997      8.9018627749999997
   104   1      2.6705588325000003      9.7920490525000012      9.7920490525000012
   105   1                       0      7.1214902200000001      12.462607885000001
   106   1     0.89018627750000001      8.0116764974999999           13.3527941625
   107   1                       0      8.9018627749999997      10.682235330000001
   108   1     0.89018627750000001      9.7920490525000012      11.572421607500001
   109   1             1.780372555      7.1214902200000001      10.682235330000001
   110   1      2.6705588325000003      8.0116764974999999      11.572421607500001
   111   1             1.780372555      8.9018627749999997      12.462607885000001
   112   1      2.6705588325000003      9.7920490525000012           13.3527941625
   113   1                       0      7.1214902200000001            16.023352995
   114   1     0.89018627750000001      8.0116764974999999           16.9135392725
   115   1                       0      8.9018627749999997             14.24298044
   116   1     0.89018627750000001      9.7920490525000012           15.1331667175
   117   1             1.780372555      7.1214902200000001             14.24298044
   118   1      2.6705588325000003      8.0116764974999999           15.1331667175
   119   1             1.780372555      8.9018627749999997            16.023352995
   120   1      2.6705588325000003      9.7920490525000012           16.9135392725
   121   1                       0      10.682235330000001             1.780372555
   122   1     0.89018627750000001      11.572421607500001      2.6705588325000003
   123   1                       0      12.462607885000001                       0
   124   1     0.89018627750000001           13.3527941625     0.89018627750000001
   125   1             1.780372555      10.682235330000001                       0
   126   1      2.6705588325000003      11.572421607500001     0.89018627750000001
   127   1             1.780372555      12.462607885000001             1.780372555
   128   1      2.6705588325000003           13.3527941625      2.6705588325000003
   129   1                       0      10.682235330000001      5.3411176650000005
   130   1     0.89018627750000001      11.572421607500001      6.2313039425000003
   131   1                       0      12.462607885000001              3.56074511
   132   1     0.89018627750000001           13.3527941625      4.4509313874999998
   133   1             1.780372555      10.682235330000001              3.56074511
   134   1      2.6705588325000003      11.572421607500001      4.4509313874999998
   135   1             1.780372555      12.462607885000001      5.3411176650000005
   136   1      2.6705588325000003           13.3527941625      6.2313039425000003
   137   1                       0      10.682235330000001      8.9018627749999997
   138   1     0.89018627750000001      11.572421607500001      9.7920490525000012
   139   1                       0      12.462607885000001      7.1214902200000001
   140   1     0.89018627750000001           13.3527941625      8.0116764974999999
   141   1             1.780372555      10.682235330000001      7.1214902200000001
   142   1      2.6705588325000003      11.572421607500001      8.0116764974999999
   143   1             1.780372555      12.462607885000001      8.9018627749999997
   144   1      2.6705588325000003           13.3527941625      9.7920490525000012
   145   1                       0      10.682235330000001      12.462607885000001
   146   1     0.89018627750000001      11.572421607500001           13.3527941625
   147   1                       0      12.462607885000001      10.682235330000001
   148   1     0.89018627750000001           13.3527941625      11.572421607500001
   149   1             1.780372555      10.682235330000001      10.682235330000001
   150   1      2.6705588325000003      11.572421607500001      11.572421607500001
   151   1             1.780372555      12.462607885000001      12.462607885000001
   152   1      2.6705588325000003           13.3527941625           13.3527941625
   153   1                       0      10.682235330000001            16.023352995
   154   1     0.89018627750000001      11.572421607500001           16.9135392725
   155   1                       0      12.462607885000001             14.24298044
   156   1     0.89018627750000001           13.3527941625           15.1331667175
   157   1             1.780372555      10.682235330000001             14.24298044
   158   1      2.6705588325000003      11.572421607500001           15.1331667175
   159   1             1.780372555      12.462607885000001            16.023352995
   160   1      2.6705588325000003           13.3527941625           16.9135392725
   161   1                       0             14.24298044             1.780372555
   162   1     0.89018627750000001           15.1331667175      2.6705588325000003
   163   1                       0            16.023352995                       0
   164   1     0.89018627750000001           16.9135392725     0.89018627750000001
   165   1             1.780372555             14.24298044                       0
   166   1      2.6705588325000003           15.1331667175     0.89018627750000001
   167   1             1.780372555            16.023352995             1.780372555
   168   1      2.6705588325000003           16.9135392725      2.6705588325000003
   169   1                       0             14.24298044      5.3411176650000005
   170   1     0.89018627750000001           15.1331667175      6.2313039425000003
   171   1                       0            16.023352995              3.56074511
   172   1     0.89018627750000001           16.9135392725      4.4509313874999998
   173   1             1.780372555             14.24298044              3.56074511
   174   1      2.6705588325000003           15.1331667175      4.4509313874999998
   175   1             1.780372555            16.023352995      5.3411176650000005
   176   1      2.6705588325000003           16.9135392725      6.2313039425000003
   177   1                       0             14.24298044      8.9018627749999997
   178   1     0.89018627750000001           15.1331667175      9.7920490525000012
   179   1                       0            16.023352995      7.1214902200000001
   180   1     0.89018627750000001           16.9135392725      8.0116764974999999
   181   1             1.780372555             14.24298044      7.1214902200000001
   182   1      2.6705588325000003           15.1331667175      8.0116764974999999
   183   1             1.780372555            16.023352995      8.9018627749999997
   184   1      2.6705588325000003           16.9135392725      9.7920490525000012
   185   1                       0             14.24298044      12.462607885000001
   186   1     0.89018627750000001           15.1331667175           13.3527941625
   187   1                       0            16.023352995      10.682235330000001
   188   1     0.89018627750000001           16.9135392725      11.572421607500001
   189   1             1.780372555             14.24298044      10.682235330000001
   190   1      2.6705588325000003           15.1331667175      11.572421607500001
   191   1             1.780372555            16.023352995      12.462607885000001
   192   1      2.6705588325000003           16.9135392725           13.3527941625
   193   1                       0             14.24298044            16.023352995
   194   1     0.89018627750000001           15.1331667175           16.9135392725
   195   1                       0            16.023352995             14.24298044
   196   1     0.89018627750000001           16.9135392725           15.1331667175
   197   1             1.780372555             14.24298044             14.24298044
   198   1      2.6705588325000003           15.1331667175           15.1331667175
   199   1             1.780372555            16.023352995            16.023352995
   200   1      2.6705588325000003           16.9135392725           16.9135392725
   201   1              3.56074511                       0             1.780372555
   202   1      4.4509313874999998     0.89018627750000001      2.6705588325000003
   203   1              3.56074511             1.780372555                       0
   204   1      4.4509313874999998      2.6705588325000003     0.89018627750000001
   205   1      5.3411176650000005                       0                       0
   206   1      6.2313039425000003     0.89018627750000001     0.89018627750000001
   207   1      5.3411176650000005             1.780372555             1.780372555
   208   1      6.2313039425000003      2.6705588325000003      2.6705588325000003
   209   1              3.56074511                       0      5.3411176650000005
   210   1      4.4509313874999998     0.89018627750000001      6.2313039425000003
   211   1              3.56074511             1.780372555              3.56074511
   212   1      4.4509313874999998      2.6705588325000003      4.4509313874999998
   213   1      5.3411176650000005                       0              3.56074511
   214   1      6.2313039425000003     0.89018627750000001      4.4509313874999998
   215   1      5.3411176650000005             1.780372555      5.3411176650000005
   216   1      6.2313039425000003      2.6705588325000003      6.2313039425000003
   217   1              3.56074511                       0      8.9018627749999997
   218   1      4.4509313874999998     0.89018627750000001      9.7920490525000012
   219   1              3.56074511             1.780372555      7.1214902200000001
   220   1      4.4509313874999998      2.6705588325000003      8.0116764974999999
   221   1      5.3411176650000005                       0      7.1214902200000001
   222   1      6.2313039425000003     0.89018627750000001      8.0116764974999999
   223   1      5.3411176650000005             1.780372555      8.9018627749999997
   224   1      6.2313039425000003      2.6705588325000003      9.7920490525000012
   225   1              3.56074511                       0      12.462607885000001
   226   1      4.4509313874999998     0.89018627750000001           13.3527941625
   227   1              3.56074511             1.780372555      10.682235330000001
   228   1      4.4509313874999998      2.6705588325000003      11.572421607500001
   229   1      5.3411176650000005                       0      10.682235330000001
   230   1      6.2313039425000003     0.89018627750000001      11.572421607500001
   231   1      5.3411176650000005             1.780372555      12.462607885000001
   232   1      6.2313039425000003      2.6705588325000003           13.3527941625
   233   1              3.56074511                       0            16.023352995
   234   1      4.4509313874999998     0.89018627750000001           16.9135392725
   235   1              3.56074511             1.780372555             14.24298044
   236   1      4.4509313874999998      2.6705588325000003           15.1331667175
   237   1      5.3411176650000005                       0             14.24298044
   238   1      6.2313039425000003     0.89018627750000001           15.1331667175
   239   1      5.3411176650000005             1.780372555            16.023352995
   240   1      6.2313039425000003      2.6705588325000003           16.9135392725
   241   1              3.56074511              3.56074511             1.780372555
   242   1      4.4509313874999998      4.4509313874999998      2.6705588325000003
   243   1              3.56074511      5.3411176650000005                       0
   244   1      4.4509313874999998      6.2313039425000003     0.89018627750000001
   245   1      5.3411176650000005              3.56074511                       0
   246   1      6.2313039425000003      4.4509313874999998     0.89018627750000001
   247   1      5.3411176650000005      5.3411176650000005             1.780372555
   248   1      6.2313039425000003      6.2313039425000003      2.6705588325000003
   249   1              3.56074511              3.56074511      5.3411176650000005
   250   1      4.4509313874999998      4.4509313874999998      6.2313039425000003
   251   1              3.56074511      5.3411176650000005              3.56074511
   252   1      4.4509313874999998      6.2313039425000003      4.4509313874999998
   253   1      5.3411176650000005              3.56074511              3.56074511
   254   1      6.2313039425000003      4.4509313874999998      4.4509313874999998
   255   1      5.3411176650000005      5.3411176650000005      5.3411176650000005
   256   1      6.2313039425000003      6.2313039425000003      6.2313039425000003
   257   1              3.56074511              3.56074511      8.9018627749999997
   258   1      4.4509313874999998      4.4509313874999998      9.7920490525000012
   259   1              3.56074511      5.3411176650000005      7.1214902200000001
   260   1      4.4509313874999998      6.2313039425000003      8.0116764974999999
   261   1      5.3411176650000005              3.56074511      7.1214902200000001
   262   1      6.2313039425000003      4.4509313874999998      8.0116764974999999
   263   1      5.3411176650000005      5.3411176650000005      8.9018627749999997
   264   1      6.2313039425000003      6.2313039425000003      9.7920490525000012
   265   1              3.56074511              3.56074511      12.462607885000001
   266   1      4.4509313874999998      4.4509313874999998           13.3527941625
   267   1              3.56074511      5.3411176650000005      10.682235330000001
   268   1      4.4509313874999998      6.2313039425000003      11.572421607500001
   269   1      5.3411176650000005              3.56074511      10.682235330000001
   270   1      6.2313039425000003      4.4509313874999998      11.572421607500001
   271   1      5.3411176650000005      5.3411176650000005      12.462607885000001
   272   1      6.2313039425000003      6.2313039425000003           13.3527941625
   273   1              3.56074511              3.56074511            16.023352995
   274   1      4.4509313874999998      4.4509313874999998           16.9135392725
   275   1              3.56074511      5.3411176650000005             14.24298044
   276   1      4.4509313874999998      6.2313039425000003           15.1331667175
   277   1      5.3411176650000005              3.56074511             14.24298044
   278   1      6.2313039425000003      4.4509313874999998           15.1331667175
   279   1      5.3411176650000005      5.3411176650000005            16.023352995
   280   1      6.2313039425000003      6.2313039425000003           16.9135392725
   281   1              3.56074511      7.1214902200000001             1.780372555
   282   1      4.4509313874999998      8.0116764974999999      2.6705588325000003
   283   1              3.56074511      8.9018627749999997                       0
   284   1      4.4509313874999998      9.7920490525000012     0.89018627750000001
   285   1      5.3411176650000005      7.1214902200000001                       0
   286   1      6.2313039425000003      8.0116764974999999     0.89018627750000001
   287   1      5.3411176650000005      8.9018627749999997             1.780372555
   288   1      6.2313039425000003      9.7920490525000012      2.6705588325000003
   289   1              3.56074511      7.1214902200000001      5.3411176650000005
   290   1      4.4509313874999998      8.0116764974999999      6.2313039425000003
   291   1              3.56074511      8.9018627749999997              3.56074511
   292   1      4.4509313874999998      9.7920490525000012      4.4509313874999998
   293   1      5.3411176650000005      7.1214902200000001              3.56074511
   294   1      6.2313039425000003      8.0116764974999999      4.4509313874999998
   295   1      5.3411176650000005      8.9018627749999997      5.3411176650000005
   296   1      6.2313039425000003      9.7920490525000012      6.2313039425000003
   297   1              3.56074511      7.1214902200000001      8.9018627749999997
   298   1      4.4509313874999998      8.0116764974999999      9.7920490525000012
   299   1              3.56074511      8.9018627749999997      7.1214902200000001
   300   1      4.4509313874999998      9.7920490525000012      8.0116764974999999
   301   1      5.3411176650000005      7.1214902200000001      7.1214902200000001
   302   1      6.2313039425000003      8.0116764974999999      8.0116764974999999
   303   1      5.3411176650000005      8.9018627749999997      8.9018627749999997
   304   1      6.2313039425000003      9.7920490525000012      9.7920490525000012
   305   1              3.56074511      7.1214902200000001      12.462607885000001
   306   1      4.4509313874999998      8.0116764974999999           13.3527941625
   307   1              3.56074511      8.9018627749999997      10.682235330000001
   308   1      4.4509313874999998      9.7920490525000012      11.572421607500001
   309   1      5.3411176650000005      7.1214902200000001      10.682235330000001
   310   1      6.2313039425000003      8.0116764974999999      11.572421607500001
   311   1      5.3411176650000005      8.9018627749999997      12.462607885000001
   312   1      6.2313039425000003      9.7920490525000012           13.3527941625
   313   1              3.56074511      7.1214902200000001            16.023352995
   314   1      4.4509313874999998      8.0116764974999999           16.9135392725
   315   1              3.56074511      8.9018627749999997             14.24298044
   316   1      4.4509313874999998      9.7920490525000012           15.1331667175
   317   1      5.3411176650000005      7.1214902200000001             14.24298044
   318   1      6.2313039425000003      8.0116764974999999           15.1331667175
   319   1      5.3411176650000005      8.9018627749999997            16.023352995
   320   1      6.2313039425000003      9.7920490525000012           16.9135392725
   321   1              3.56074511      10.682235330000001             1.780372555
   322   1      4.4509313874999998      11.572421607500001      2.6705588325000003
   323   1              3.56074511      12.462607885000001                       0
   324   1      4.4509313874999998           13.3527941625     0.89018627750000001
   325   1      5.3411176650000005      10.682235330000001                       0
   326   1      6.2313039425000003      11.572421607500001     0.89018627750000001
   327   1      5.3411176650000005      12.462607885000001             1.780372555
   328   1      6.2313039425000003           13.3527941625      2.6705588325000003
   329   1              3.56074511      10.682235330000001      5.3411176650000005
   330   1      4.4509313874999998      11.572421607500001      6.2313039425000003
   331   1              3.56074511      12.462607885000001              3.56074511
   332   1      4.4509313874999998           13.3527941625      4.4509313874999998
   333   1      5.3411176650000005      10.682235330000001              3.56074511
   334   1      6.2313039425000003      11.572421607500001      4.4509313874999998
   335   1      5.3411176650000005      12.462607885000001      5.3411176650000005
   336   1      6.2313039425000003           13.3527941625      6.2313039425000003
   337   1              3.56074511      10.682235330000001      8.9018627749999997
   338   1      4.4509313874999998      11.572421607500001      9.7920490525000012
   339   1              3.56074511      12.462607885000001      7.1214902200000001
   340   1      4.4509313874999998           13.3527941625      8.0116764974999999
   341   1      5.3411176650000005      10.682235330000001      7.1214902200000001
   342   1      6.2313039425000003      11.572421607500001      8.0116764974999999
   343   1      5.3411176650000005      12.462607885000001      8.9018627749999997
   344   1      6.2313039425000003           13.3527941625      9.7920490525000012
   345   1              3.56074511      10.682235330000001      12.462607885000001
   346   1      4.4509313874999998      11.572421607500001           13.3527941625
   347   1              3.56074511      12.462607885000001      10.682235330000001
   348   1      4.4509313874999998           13.3527941625      11.572421607500001
   349   1      5.3411176650000005      10.682235330000001      10.682235330000001
   350   1      6.2313039425000003      11.572421607500001      11.572421607500001
   351   1      5.3411176650000005      12.462607885000001      12.462607885000001
   352   1      6.2313039425000003           13.3527941625           13.3527941625
   353   1              3.56074511      10.682235330000001            16.023352995
   354   1      4.4509313874999998      11.572421607500001           16.9135392725
   355   1              3.56074511      12.462607885000001             14.24298044
   356   1      4.4509313874999998           13.3527941625           15.1331667175
   357   1      5.3411176650000005      10.682235330000001             14.24298044
   358   1      6.2313039425000003      11.572421607500001           15.1331667175
   359   1      5.3411176650000005      12.462607885000001            16.023352995
   360   1      6.2313039425000003           13.3527941625           16.9135392725
   361   1              3.56074511             14.24298044             1.780372555
   362   1      4.4509313874999998           15.1331667175      2.6705588325000003
   363   1              3.56074511            16.023352995                       0
   364   1      4.4509313874999998           16.9135392725     0.89018627750000001
   365   1      5.3411176650000005             14.24298044                       0
   366   1      6.2313039425000003           15.1331667175     0.89018627750000001
   367   1      5.3411176650000005            16.023352995             1.780372555
   368   1      6.2313039425000003           16.9135392725      2.6705588325000003
   369   1              3.56074511             14.24298044      5.3411176650000005
   370   1      4.4509313874999998           15.1331667175      6.2313039425000003
   371   1              3.56074511            16.023352995              3.56074511
   372   1      4.4509313874999998           16.9135392725      4.4509313874999998
   373   1      5.3411176650000005             14.24298044              3.56074511
   374   1      6.2313039425000003           15.1331667175      4.4509313874999998
   375   1      5.3411176650000005            16.023352995      5.3411176650000005
   376   1      6.2313039425000003           16.9135392725      6.2313039425000003
   377   1              3.56074511             14.24298044      8.9018627749999997
   378   1      4.4509313874999998           15.1331667175      9.7920490525000012
   379   1              3.56074511            16.023352995      7.1214902200000001
   380   1      4.4509313874999998           16.9135392725      8.0116764974999999
   381   1      5.3411176650000005             14.24298044      7.1214902200000001
   382   1      6.2313039425000003           15.1331667175      8.0116764974999999
   383   1      5.3411176650000005            16.023352995      8.9018627749999997
   384   1      6.2313039425000003           16.9135392725      9.7920490525000012
   385   1              3.56074511             14.24298044      12.462607885000001
   386   1      4.4509313874999998           15.1331667175           13.3527941625
   387   1              3.56074511            16.023352995      10.682235330000001
   388   1      4.4509313874999998           16.9135392725      11.572421607500001
   389   1      5.3411176650000005             14.24298044      10.682235330000001
   390   1      6.2313039425000003           15.1331667175      11.572421607500001
   391   1      5.3411176650000005            16.023352995      12.462607885000001
   392   1      6.2313039425000003           16.9135392725           13.3527941625
   393   1              3.56074511             14.24298044            16.023352995
   394   1      4.4509313874999998           15.1331667175           16.9135392725
   395   1              3.56074511            16.023352995             14.24298044
   396   1      4.4509313874999998           16.9135392725           15.1331667175
   397   1      5.3411176650000005             14.24298044             14.24298044
   398   1      6.2313039425000003           15.1331667175           15.1331667175
   399   1      5.3411176650000005            16.023352995            16.023352995
   400   1      6.2313039425000003           16.9135392725           16.9135392725
   401   1      7.1214902200000001                       0             1.780372555
   402   1      8.0116764974999999     0.89018627750000001      2.6705588325000003
   403   1      7.1214902200000001             1.780372555                       0
   404   1      8.0116764974999999      2.6705588325000003     0.89018627750000001
   405   1      8.9018627749999997                       0                       0
   406   1      9.7920490525000012     0.89018627750000001     0.89018627750000001
   407   1      8.9018627749999997             1.780372555             1.780372555
   408   1      9.7920490525000012      2.6705588325000003      2.6705588325000003
   409   1      7.1214902200000001                       0      5.3411176650000005
   410   1      8.0116764974999999     0.89018627750000001      6.2313039425000003
   411   1      7.1214902200000001             1.780372555              3.56074511
   412   1      8.0116764974999999      2.6705588325000003      4.4509313874999998
   413   1      8.9018627749999997                       0              3.56074511
   414   1      9.7920490525000012     0.89018627750000001      4.4509313874999998
   415   1      8.9018627749999997             1.780372555      5.3411176650000005
   416   1      9.7920490525000012      2.6705588325000003      6.2313039425000003
   417   1      7.1214902200000001                       0      8.9018627749999997
   418   1      8.0116764974999999     0.89018627750000001      9.7920490525000012
   419   1      7.1214902200000001             1.780372555      7.1214902200000001
   420   1      8.0116764974999999      2.6705588325000003      8.0116764974999999
   421   1      8.9018627749999997                       0      7.1214902200000001
   422   1      9.7920490525000012     0.89018627750000001      8.0116764974999999
   423   1      8.9018627749999997             1.780372555      8.9018627749999997
   424   1      9.7920490525000012      2.6705588325000003      9.7920490525000012
   425   1      7.1214902200000001                       0      12.462607885000001
   426   1      8.0116764974999999     0.89018627750000001           13.3527941625
   427   1      7.1214902200000001             1.780372555      10.682235330000001
   428   1      8.0116764974999999      2.6705588325000003      11.572421607500001
   429   1      8.9018627749999997                       0      10.682235330000001
   430   1      9.7920490525000012     0.89018627750000001      11.572421607500001
   431   1      8.9018627749999997             1.780372555      12.462607885000001
   432   1      9.7920490525000012      2.6705588325000003           13.3527941625
   433   1      7.1214902200000001                       0            16.023352995
   434   1      8.0116764974999999     0.89018627750000001           16.9135392725
   435   1      7.1214902200000001             1.780372555             14.24298044
   436   1      8.0116764974999999      2.6705588325000003           15.1331667175
   437   1      8.9018627749999997                       0             14.24298044
   438   1      9.7920490525000012     0.89018627750000001           15.1331667175
   439   1      8.9018627749999997             1.780372555            16.023352995
   440   1      9.7920490525000012      2.6705588325000003           16.9135392725
   441   1      7.1214902200000001              3.56074511             1.780372555
   442   1      8.0116764974999999      4.4509313874999998      2.6705588325000003
   443   1      7.1214902200000001      5.3411176650000005                       0
   444   1      8.0116764974999999      6.2313039425000003     0.89018627750000001
   445   1      8.9018627749999997              3.56074511                       0
   446   1      9.7920490525000012      4.4509313874999998     0.89018627750000001
   447   1      8.9018627749999997      5.3411176650000005             1.780372555
   448   1      9.7920490525000012      6.2313039425000003      2.6705588325000003
   449   1      7.1214902200000001              3.56074511      5.3411176650000005
   450   1      8.0116764974999999      4.4509313874999998      6.2313039425000003
   451   1      7.1214902200000001      5.3411176650000005              3.56074511
   452   1      8.0116764974999999      6.2313039425000003      4.4509313874999998
   453   1      8.9018627749999997              3.56074511              3.56074511
   454   1      9.7920490525000012      4.4509313874999998      4.4509313874999998
   455   1      8.9018627749999997      5.3411176650000005      5.3411176650000005
   456   1      9.7920490525000012      6.2313039425000003      6.2313039425000003
   457   1      7.1214902200000001              3.56074511      8.9018627749999997
   458   1      8.0116764974999999      4.4509313874999998      9.7920490525000012
   459   1      7.1214902200000001      5.3411176650000005      7.1214902200000001
   460   1      8.0116764974999999      6.2313039425000003      8.0116764974999999
   461   1      8.9018627749999997              3.56074511      7.1214902200000001
   462   1      9.7920490525000012      4.4509313874999998      8.0116764974999999
   463   1      8.9018627749999997      5.3411176650000005      8.9018627749999997
   464   1      9.7920490525000012      6.2313039425000003      9.7920490525000012
   465   1      7.1214902200000001              3.56074511      12.462607885000001
   466   1      8.0116764974999999      4.4509313874999998           13.3527941625
   467   1      7.1214902200000001      5.3411176650000005      10.682235330000001
   468   1      8.0116764974999999      6.2313039425000003      11.572421607500001
   469   1      8.9018627749999997              3.56074511      10.682235330000001
   470   1      9.7920490525000012      4.4509313874999998      11.572421607500001
   471   1      8.9018627749999997      5.3411176650000005      12.462607885000001
   472   1      9.7920490525000012      6.2313039425000003           13.3527941625
   473   1      7.1214902200000001              3.56074511            16.023352995
   474   1      8.0116764974999999      4.4509313874999998           16.9135392725
   475   1      7.1214902200000001      5.3411176650000005             14.24298044
   476   1      8.0116764974999999      6.2313039425000003           15.1331667175
   477   1      8.9018627749999997              3.56074511             14.24298044
   478   1      9.7920490525000012      4.4509313874999998           15.1331667175
   479   1      8.9018627749999997      5.3411176650000005            16.023352995
   480   1      9.7920490525000012      6.2313039425000003           16.9135392725
   481   1      7.1214902200000001      7.1214902200000001             1.780372555
   482   1      8.0116764974999999      8.0116764974999999      2.6705588325000003
   483   1      7.1214902200000001      8.9018627749999997                       0
   484   1      8.0116764974999999      9.7920490525000012     0.89018627750000001
   485   1      8.9018627749999997      7.1214902200000001                       0
   486   1      9.7920490525000012      8.0116764974999999     0.89018627750000001
   487   1      8.9018627749999997      8.9018627749999997             1.780372555
   488   1      9.7920490525000012      9.7920490525000012      2.6705588325000003
   489   1      7.1214902200000001      7.1214902200000001      5.3411176650000005
   490   1      8.0116764974999999      8.0116764974999999      6.2313039425000003
   491   1      7.1214902200000001      8.9018627749999997              3.56074511
   492   1      8.0116764974999999      9.7920490525000012      4.4509313874999998
   493   1      8.9018627749999997      7.1214902200000001              3.56074511
   494   1      9.7920490525000012      8.0116764974999999      4.4509313874999998
   495   1      8.9018627749999997      8.9018627749999997      5.3411176650000005
   496   1      9.7920490525000012      9.7920490525000012      6.2313039425000003
   497   1      7.1214902200000001      7.1214902200000001      8.9018627749999997
   498   1      8.0116764974999999      8.0116764974999999      9.7920490525000012
   499   1      7.1214902200000001      8.9018627749999997      7.1214902200000001
   500   1      8.0116764974999999      9.7920490525000012      8.0116764974999999
   501   1      8.9018627749999997      7.1214902200000001      7.1214902200000001
   502   1      9.7920490525000012      8.0116764974999999      8.0116764974999999
   503   1      8.9018627749999997      8.9018627749999997      8.9018627749999997
   504   1      9.7920490525000012      9.7920490525000012      9.7920490525000012
   505   1      7.1214902200000001      7.1214902200000001      12.462607885000001
   506   1      8.0116764974999999      8.0116764974999999           13.3527941625
   507   1      7.1214902200000001      8.9018627749999997      10.682235330000001
   508   1      8.0116764974999999      9.7920490525000012      11.572421607500001
   509   1      8.9018627749999997      7.1214902200000001      10.682235330000001
   510   1      9.7920490525000012      8.0116764974999999      11.572421607500001
   511   1      8.9018627749999997      8.9018627749999997      12.462607885000001
   512   1      9.7920490525000012      9.7920490525000012           13.3527941625
   513   1      7.1214902200000001      7.1214902200000001            16.023352995
   514   1      8.0116764974999999      8.0116764974999999           16.9135392725
   515   1      7.1214902200000001      8.9018627749999997             14.24298044
   516   1      8.0116764974999999      9.7920490525000012           15.1331667175
   517   1      8.9018627749999997      7.1214902200000001             14.24298044
   518   1      9.7920490525000012      8.0116764974999999           15.1331667175
   519   1      8.9018627749999997      8.9018627749999997            16.023352995
   520   1      9.7920490525000012      9.7920490525000012           16.9135392725
   521   1      7.1214902200000001      10.682235330000001             1.780372555
   522   1      8.0116764974999999      11.572421607500001      2.6705588325000003
   523   1      7.1214902200000001      12.462607885000001                       0
   524   1      8.0116764974999999           13.3527941625     0.89018627750000001
   525   1      8.9018627749999997      10.682235330000001                       0
   526   1      9.7920490525000012      11.572421607500001     0.89018627750000001
   527   1      8.9018627749999997      12.462607885000001             1.780372555
   528   1      9.7920490525000012           13.3527941625      2.6705588325000003
   529   1      7.1214902200000001      10.682235330000001      5.3411176650000005
   530   1      8.0116764974999999      11.572421607500001      6.2313039425000003
   531   1      7.1214902200000001      12.462607885000001              3.56074511
   532   1      8.0116764974999999           13.3527941625      4.4509313874999998
   533   1      8.9018627749999997      10.682235330000001              3.56074511
   534   1      9.7920490525000012      11.572421607500001      4.4509313874999998
   535   1      8.9018627749999997      12.462607885000001      5.3411176650000005
   536   1      9.7920490525000012           13.3527941625      6.2313039425000003
   537   1      7.1214902200000001      10.682235330000001      8.9018627749999997
   538   1      8.0116764974999999      11.572421607500001      9.7920490525000012
   539   1      7.1214902200000001      12.462607885000001      7.1214902200000001
   540   1      8.0116764974999999           13.3527941625      8.0116764974999999
   541   1      8.9018627749999997      10.682235330000001      7.1214902200000001
   542   1      9.7920490525000012      11.572421607500001      8.0116764974999999
   543   1      8.9018627749999997      12.462607885000001      8.9018627749999997
   544   1      9.7920490525000012           13.3527941625      9.7920490525000012
   545   1      7.1214902200000001      10.682235330000001      12.462607885000001
   546   1      8.0116764974999999      11.572421607500001           13.3527941625
   547   1      7.1214902200000001      12.462607885000001      10.682235330000001
   548   1      8.0116764974999999           13.3527941625      11.572421607500001
   549   1      8.9018627749999997      10.682235330000001      10.682235330000001
   550   1      9.7920490525000012      11.572421607500001      11.572421607500001
   551   1      8.9018627749999997      12.462607885000001      12.462607885000001
   552   1      9.7920490525000012           13.3527941625           13.3527941625
   553   1      7.1214902200000001      10.682235330000001            16.023352995
   554   1      8.0116764974999999      11.572421607500001           16.9135392725
   555   1      7.1214902200000001      12.462607885000001             14.24298044
   556   1      8.0116764974999999           13.3527941625           15.1331667175
   557   1      8.9018627749999997      10.682235330000001             14.24298044
   558   1      9.7920490525000012      11.572421607500001           15.1331667175
   559   1      8.9018627749999997      12.462607885000001            16.023352995
   560   1      9.7920490525000012           13.3527941625           16.9135392725
   561   1      7.1214902200000001             14.24298044             1.780372555
   562   1      8.0116764974999999           15.1331667175      2.6705588325000003
   563   1      7.1214902200000001            16.023352995                       0
   564   1      8.0116764974999999           16.9135392725     0.89018627750000001
   565   1      8.9018627749999997             14.24298044                       0
   566   1      9.7920490525000012           15.1331667175     0.89018627750000001
   567   1      8.9018627749999997            16.023352995             1.780372555
   568   1      9.7920490525000012           16.9135392725      2.6705588325000003
   569   1      7.1214902200000001             14.24298044      5.3411176650000005
   570   1      8.0116764974999999           15.1331667175      6.2313039425000003
   571   1      7.1214902200000001            16.023352995              3.56074511
   572   1      8.0116764974999999           16.9135392725      4.4509313874999998
   573   1      8.9018627749999997             14.24298044              3.56074511
   574   1      9.7920490525000012           15.1331667175      4.4509313874999998
   575   1      8.9018627749999997            16.023352995      5.3411176650000005
   576   1      9.7920490525000012           16.9135392725      6.2313039425000003
   577   1      7.1214902200000001             14.24298044      8.9018627749999997
   578   1      8.0116764974999999           15.1331667175      9.7920490525000012
   579   1      7.1214902200000001            16.023352995      7.1214902200000001
   580   1      8.0116764974999999           16.9135392725      8.0116764974999999
   581   1      8.9018627749999997             14.24298044      7.1214902200000001
   582   1      9.7920490525000012           15.1331667175      8.0116764974999999
   583   1      8.9018627749999997            16.023352995      8.9018627749999997
   584   1      9.7920490525000012           16.9135392725      9.7920490525000012
   585   1      7.1214902200000001             14.24298044      12.462607885000001
   586   1      8.0116764974999999           15.1331667175           13.3527941625
   587   1      7.1214902200000001            16.023352995      10.682235330000001
   588   1      8.0116764974999999           16.9135392725      11.572421607500001
   589   1      8.9018627749999997             14.24298044      10.682235330000001
   590   1      9.7920490525000012           15.1331667175      11.572421607500001
   591   1      8.9018627749999997            16.023352995      12.462607885000001
   592   1      9.7920490525000012           16.9135392725           13.3527941625
   593   1      7.1214902200000001             14.24298044            16.023352995
   594   1      8.0116764974999999           15.1331667175           16.9135392725
   595   1      7.1214902200000001            16.023352995             14.24298044
   596   1      8.0116764974999999           16.9135392725           15.1331667175
   597   1      8.9018627749999997             14.24298044             14.24298044
   598   1      9.7920490525000012           15.1331667175           15.1331667175
   599   1      8.9018627749999997            16.023352995            16.023352995
   600   1      9.7920490525000012           16.9135392725           16.9135392725
   601   1      10.682235330000001                       0             1.780372555
   602   1      11.572421607500001     0.89018627750000001      2.6705588325000003
   603   1      10.682235330000001             1.780372555                       0
   604   1      11.572421607500001      2.6705588325000003     0.89018627750000001
   605   1      12.462607885000001                       0                       0
   606   1           13.3527941625     0.89018627750000001     0.89018627750000001
   607   1      12.462607885000001             1.780372555             1.780372555
   608   1           13.3527941625      2.6705588325000003      2.6705588325000003
   609   1      10.682235330000001                       0      5.3411176650000005
   610   1      11.572421607500001     0.89018627750000001      6.2313039425000003
   611   1      10.682235330000001             1.780372555              3.56074511
   612   1      11.572421607500001      2.6705588325000003      4.4509313874999998
   613   1      12.462607885000001                       0              3.56074511
   614   1           13.3527941625     0.89018627750000001      4.4509313874999998
   615   1      12.462607885000001             1.780372555      5.3411176650000005
   616   1           13.3527941625      2.6705588325000003      6.2313039425000003
   617   1      10.682235330000001                       0      8.9018627749999997
   618   1      11.572421607500001     0.89018627750000001      9.7920490525000012
   619   1      10.682235330000001             1.780372555      7.1214902200000001
   620   1      11.572421607500001      2.6705588325000003      8.0116764974999999
   621   1      12.462607885000001                       0      7.1214902200000001
   622   1           13.3527941625     0.89018627750000001      8.0116764974999999
   623   1      12.462607885000001             1.780372555      8.9018627749999997
   624   1           13.3527941625      2.6705588325000003      9.7920490525000012
   625   1      10.682235330000001                       0      12.462607885000001
   626   1      11.572421607500001     0.89018627750000001           13.3527941625
   627   1      10.682235330000001             1.780372555      10.682235330000001
   628   1      11.572421607500001      2.6705588325000003      11.572421607500001
   629   1      12.462607885000001                       0      10.682235330000001
   630   1           13.3527941625     0.89018627750000001      11.572421607500001
   631   1      12.462607885000001             1.780372555      12.462607885000001
   632   1           13.3527941625      2.6705588325000003           13.3527941625
   633   1      10.682235330000001                       0            16.023352995
   634   1      11.572421607500001     0.89018627750000001           16.9135392725
   635   1      10.682235330000001             1.780372555             14.24298044
   636   1      11.572421607500001      2.6705588325000003           15.1331667175
   637   1      12.462607885000001                       0             14.24298044
   638   1           13.3527941625     0.89018627750000001           15.1331667175
   639   1      12.462607885000001             1.780372555            16.023352995
   640   1           13.3527941625      2.6705588325000003           16.9135392725
   641   1      10.682235330000001              3.56074511             1.780372555
   642   1      11.572421607500001      4.4509313874999998      2.6705588325000003
   643   1      10.682235330000001      5.3411176650000005                       0
   644   1      11.572421607500001      6.2313039425000003     0.89018627750000001
   645   1      12.462607885000001              3.56074511                       0
   646   1           13.3527941625      4.4509313874999998     0.89018627750000001
   647   1      12.462607885000001      5.3411176650000005             1.780372555
   648   1           13.3527941625      6.2313039425000003      2.6705588325000003
   649   1      10.682235330000001              3.56074511      5.3411176650000005
   650   1      11.572421607500001      4.4509313874999998      6.2313039425000003
   651   1      10.682235330000001      5.3411176650000005              3.56074511
   652   1      11.572421607500001      6.2313039425000003      4.4509313874999998
   653   1      12.462607885000001              3.56074511              3.56074511
   654   1           13.3527941625      4.4509313874999998      4.4509313874999998
   655   1      12.462607885000001      5.3411176650000005      5.3411176650000005
   656   1           13.3527941625      6.2313039425000003      6.2313039425000003
   657   1      10.682235330000001              3.56074511      8.9018627749999997
   658   1      11.572421607500001      4.4509313874999998      9.7920490525000012
   659   1      10.682235330000001      5.3411176650000005      7.1214902200000001
   660   1      11.572421607500001      6.2313039425000003      8.0116764974999999
   661   1      12.462607885000001              3.56074511      7.1214902200000001
   662   1           13.3527941625      4.4509313874999998      8.0116764974999999
   663   1      12.462607885000001      5.3411176650000005      8.9018627749999997
   664   1           13.3527941625      6.2313039425000003      9.7920490525000012
   665   1      10.682235330000001              3.56074511      12.462607885000001
   666   1      11.572421607500001      4.4509313874999998           13.3527941625
   667   1      10.682235330000001      5.3411176650000005      10.682235330000001
   668   1      11.572421607500001      6.2313039425000003      11.572421607500001
   669   1      12.462607885000001              3.56074511      10.682235330000001
   670   1           13.3527941625      4.4509313874999998      11.572421607500001
   671   1      12.462607885000001      5.3411176650000005      12.462607885000001
   672   1           13.3527941625      6.2313039425000003           13.3527941625
   673   1      10.682235330000001              3.56074511            16.023352995
   674   1      11.572421607500001      4.4509313874999998           16.9135392725
   675   1      10.682235330000001      5.3411176650000005             14.24298044
   676   1      11.572421607500001      6.2313039425000003           15.1331667175
   677   1      12.462607885000001              3.56074511             14.24298044
   678   1           13.3527941625      4.4509313874999998           15.1331667175
   679   1      12.462607885000001      5.3411176650000005            16.023352995
   680   1           13.3527941625      6.2313039425000003           16.9135392725
   681   1      10.682235330000001      7.1214902200000001             1.780372555
   682   1      11.572421607500001      8.0116764974999999      2.6705588325000003
   683   1      10.682235330000001      8.9018627749999997                       0
   684   1      11.572421607500001      9.7920490525000012     0.89018627750000001
   685   1      12.462607885000001      7.1214902200000001                       0
   686   1           13.3527941625      8.0116764974999999     0.89018627750000001
   687   1      12.462607885000001      8.9018627749999997             1.780372555
   688   1           13.3527941625      9.7920490525000012      2.6705588325000003
   689   1      10.682235330000001      7.1214902200000001      5.3411176650000005
   690   1      11.572421607500001      8.0116764974999999      6.2313039425000003
   691   1      10.682235330000001      8.9018627749999997              3.56074511
   692   1      11.572421607500001      9.7920490525000012      4.4509313874999998
   693   1      12.462607885000001      7.1214902200000001              3.56074511
   694   1           13.3527941625      8.0116764974999999      4.4509313874999998
   695   1      12.462607885000001      8.9018627749999997      5.3411176650000005
   696   1           13.3527941625      9.7920490525000012      6.2313039425000003
   697   1      10.682235330000001      7.1214902200000001      8.9018627749999997
   698   1      11.572421607500001      8.0116764974999999      9.7920490525000012
   699   1      10.682235330000001      8.9018627749999997      7.1214902200000001
   700   1      11.572421607500001      9.7920490525000012      8.0116764974999999
   701   1      12.462607885000001      7.1214902200000001      7.1214902200000001
   702   1           13.3527941625      8.0116764974999999      8.0116764974999999
   703   1      12.462607885000001      8.9018627749999997      8.9018627749999997
   704   1           13.3527941625      9.7920490525000012      9.7920490525000012
   705   1      10.682235330000001      7.1214902200000001      12.462607885000001
   706   1      11.572421607500001      8.0116764974999999           13.3527941625
   707   1      10.682235330000001      8.9018627749999997      10.682235330000001
   708   1      11.572421607500001      9.7920490525000012      11.572421607500001
   709   1      12.462607885000001      7.1214902200000001      10.682235330000001
   710   1           13.3527941625      8.0116764974999999      11.572421607500001
   711   1      12.462607885000001      8.9018627749999997      12.462607885000001
   712   1           13.3527941625      9.7920490525000012           13.3527941625
   713   1      10.682235330000001      7.1214902200000001            16.023352995
   714   1      11.572421607500001      8.0116764974999999           16.9135392725
   715   1      10.682235330000001      8.9018627749999997             14.24298044
   716   1      11.572421607500001      9.7920490525000012           15.1331667175
   717   1      12.462607885000001      7.1214902200000001             14.24298044
   718   1           13.3527941625      8.0116764974999999           15.1331667175
   719   1      12.462607885000001      8.9018627749999997            16.023352995
   720   1           13.3527941625      9.7920490525000012           16.9135392725
   721   1      10.682235330000001      10.682235330000001             1.780372555
   722   1      11.572421607500001      11.572421607500001      2.6705588325000003
   723   1      10.682235330000001      12.462607885000001                       0
   724   1      11.572421607500001           13.3527941625     0.89018627750000001
   725   1      12.462607885000001      10.682235330000001                       0
   726   1           13.3527941625      11.572421607500001     0.89018627750000001
   727   1      12.462607885000001      12.462607885000001             1.780372555
   728   1           13.3527941625           13.3527941625      2.6705588325000003
   729   1      10.682235330000001      10.682235330000001      5.3411176650000005
   730   1      11.572421607500001      11.572421607500001      6.2313039425000003
   731   1      10.682235330000001      12.462607885000001              3.56074511
   732   1      11.572421607500001           13.3527941625      4.4509313874999998
   733   1      12.462607885000001      10.682235330000001              3.56074511
   734   1           13.3527941625      11.572421607500001      4.4509313874999998
   735   1      12.462607885000001      12.462607885000001      5.3411176650000005
   736   1           13.3527941625           13.3527941625      6.2313039425000003
   737   1      10.682235330000001      10.682235330000001      8.9018627749999997
   738   1      11.572421607500001      11.572421607500001      9.7920490525000012
   739   1      10.682235330000001      12.462607885000001      7.1214902200000001
   740   1      11.572421607500001           13.3527941625      8.0116764974999999
   741   1      12.462607885000001      10.682235330000001      7.1214902200000001
   742   1           13.3527941625      11.572421607500001      8.0116764974999999
   743   1      12.462607885000001      12.462607885000001      8.9018627749999997
   744   1           13.3527941625           13.3527941625      9.7920490525000012
   745   1      10.682235330000001      10.682235330000001      12.462607885000001
   746   1      11.572421607500001      11.572421607500001           13.3527941625
   747   1      10.682235330000001      12.462607885000001      10.682235330000001
   748   1      11.572421607500001           13.3527941625      11.572421607500001
   749   1      12.462607885000001      10.682235330000001      10.682235330000001
   750   1           13.3527941625      11.572421607500001      11.572421607500001
   751   1      12.462607885000001      12.462607885000001      12.462607885000001
   752   1           13.3527941625           13.3527941625           13.3527941625
   753   1      10.682235330000001      10.682235330000001            16.023352995
   754   1      11.572421607500001      11.572421607500001           16.9135392725
   755   1      10.682235330000001      12.462607885000001             14.24298044
   756   1      11.572421607500001           13.3527941625           15.1331667175
   757   1      12.462607885000001      10.682235330000001             14.24298044
   758   1           13.3527941625      11.572421607500001           15.1331667175
   759   1      12.462607885000001      12.462607885000001            16.023352995
   760   1           13.3527941625           13.3527941625           16.9135392725
   761   1      10.682235330000001             14.24298044             1.780372555
   762   1      11.572421607500001           15.1331667175      2.6705588325000003
   763   1      10.682235330000001            16.023352995                       0
   764   1      11.572421607500001           16.9135392725     0.89018627750000001
   765   1      12.462607885000001             14.24298044                       0
   766   1           13.3527941625           15.1331667175     0.89018627750000001
   767   1      12.462607885000001            16.023352995             1.780372555
   768   1           13.3527941625           16.9135392725      2.6705588325000003
   769   1      10.682235330000001             14.24298044      5.3411176650000005
   770   1      11.572421607500001           15.1331667175      6.2313039425000003
   771   1      10.682235330000001            16.023352995              3.56074511
   772   1      11.572421607500001           16.9135392725      4.4509313874999998
   773   1      12.462607885000001             14.24298044              3.56074511
   774   1           13.3527941625           15.1331667175      4.4509313874999998
   775   1      12.462607885000001            16.023352995      5.3411176650000005
   776   1           13.3527941625           16.9135392725      6.2313039425000003
   777   1      10.682235330000001             14.24298044      8.9018627749999997
   778   1      11.572421607500001           15.1331667175      9.7920490525000012
   779   1      10.682235330000001            16.023352995      7.1214902200000001
   780   1      11.572421607500001           16.9135392725      8.0116764974999999
   781   1      12.462607885000001             14.24298044      7.1214902200000001
   782   1           13.3527941625           15.1331667175      8.0116764974999999
   783   1      12.462607885000001            16.023352995      8.9018627749999997
   784   1           13.3527941625           16.9135392725      9.7920490525000012
   785   1      10.682235330000001             14.24298044      12.462607885000001
   786   1      11.572421607500001           15.1331667175           13.3527941625
   787   1      10.682235330000001            16.023352995      10.682235330000001
   788   1      11.572421607500001           16.9135392725      11.572421607500001
   789   1      12.462607885000001             14.24298044      10.682235330000001
   790   1           13.3527941625           15.1331667175      11.572421607500001
   791   1      12.462607885000001            16.023352995      12.462607885000001
   792   1           13.3527941625           16.9135392725           13.3527941625
   793   1      10.682235330000001             14.24298044            16.023352995
   794   1      11.572421607500001           15.1331667175           16.9135392725
   795   1      10.682235330000001            16.023352995             14.24298044
   796   1      11.572421607500001           16.9135392725           15.1331667175
   797   1      12.462607885000001             14.24298044             14.24298044
   798   1           13.3527941625           15.1331667175           15.1331667175
   799   1      12.462607885000001            16.023352995            16.023352995
   800   1           13.3527941625           16.9135392725           16.9135392725
   801   1             14.24298044                       0             1.780372555
   802   1           15.1331667175     0.89018627750000001      2.6705588325000003
   803   1             14.24298044             1.780372555                       0
   804   1           15.1331667175      2.6705588325000003     0.89018627750000001
   805   1            16.023352995                       0                       0
   806   1           16.9135392725     0.89018627750000001     0.89018627750000001
   807   1            16.023352995             1.780372555             1.780372555
   808   1           16.9135392725      2.6705588325000003      2.6705588325000003
   809   1             14.24298044                       0      5.3411176650000005
   810   1           15.1331667175     0.89018627750000001      6.2313039425000003
   811   1             14.24298044             1.780372555              3.56074511
   812   1           15.1331667175      2.6705588325000003      4.4509313874999998
   813   1            16.023352995                       0              3.56074511
   814   1           16.9135392725     0.89018627750000001      4.4509313874999998
   815   1            16.023352995             1.780372555      5.3411176650000005
   816   1           16.9135392725      2.6705588325000003      6.2313039425000003
   817   1             14.24298044                       0      8.9018627749999997
   818   1           15.1331667175     0.89018627750000001      9.7920490525000012
   819   1             14.24298044             1.780372555      7.1214902200000001
   820   1           15.1331667175      2.6705588325000003      8.0116764974999999
   821   1            16.023352995                       0      7.1214902200000001
   822   1           16.9135392725     0.89018627750000001      8.0116764974999999
   823   1            16.023352995             1.780372555      8.9018627749999997
   824   1           16.9135392725      2.6705588325000003      9.7920490525000012
   825   1             14.24298044                       0      12.462607885000001
   826   1           15.1331667175     0.89018627750000001           13.3527941625
   827   1             14.24298044             1.780372555      10.682235330000001
   828   1           15.1331667175      2.6705588325000003      11.572421607500001
   829   1            16.023352995                       0      10.682235330000001
   830   1           16.9135392725     0.89018627750000001      11.572421607500001
   831   1            16.023352995             1.780372555      12.462607885000001
   832   1           16.9135392725      2.6705588325000003           13.3527941625
   833   1             14.24298044                       0            16.023352995
   834   1           15.1331667175     0.89018627750000001           16.9135392725
   835   1             14.24298044             1.780372555             14.24298044
   836   1           15.1331667175      2.6705588325000003           15.1331667175
   837   1            16.023352995                       0             14.24298044
   838   1           16.9135392725     0.89018627750000001           15.1331667175
   839   1            16.023352995             1.780372555            16.023352995
   840   1           16.9135392725      2.6705588325000003           16.9135392725
   841   1             14.24298044              3.56074511             1.780372555
   842   1           15.1331667175      4.4509313874999998      2.6705588325000003
   843   1             14.24298044      5.3411176650000005                       0
   844   1           15.1331667175      6.2313039425000003     0.89018627750000001
   845   1            16.023352995              3.56074511                       0
   846   1           16.9135392725      4.4509313874999998     0.89018627750000001
   847   1            16.023352995      5.3411176650000005             1.780372555
   848   1           16.9135392725      6.2313039425000003      2.6705588325000003
   849   1             14.24298044              3.56074511      5.3411176650000005
   850   1           15.1331667175      4.4509313874999998      6.2313039425000003
   851   1             14.24298044      5.3411176650000005              3.56074511
   852   1           15.1331667175      6.2313039425000003      4.4509313874999998
   853   1            16.023352995              3.56074511              3.56074511
   854   1           16.9135392725      4.4509313874999998      4.4509313874999998
   855   1            16.023352995      5.3411176650000005      5.3411176650000005
   856   1           16.9135392725      6.2313039425000003      6.2313039425000003
   857   1             14.24298044              3.56074511      8.9018627749999997
   858   1           15.1331667175      4.4509313874999998      9.7920490525000012
   859   1             14.24298044      5.3411176650000005      7.1214902200000001
   860   1           15.1331667175      6.2313039425000003      8.0116764974999999
   861   1            16.023352995              3.56074511      7.1214902200000001
   862   1           16.9135392725      4.4509313874999998      8.0116764974999999
   863   1            16.023352995      5.3411176650000005      8.9018627749999997
   864   1           16.9135392725      6.2313039425000003      9.7920490525000012
   865   1             14.24298044              3.56074511      12.462607885000001
   866   1           15.1331667175      4.4509313874999998           13.3527941625
   867   1             14.24298044      5.3411176650000005      10.682235330000001
   868   1           15.1331667175      6.2313039425000003      11.572421607500001
   869   1            16.023352995              3.56074511      10.682235330000001
   870   1           16.9135392725      4.4509313874999998      11.572421607500001
   871   1            16.023352995      5.3411176650000005      12.462607885000001
   872   1           16.9135392725      6.2313039425000003           13.3527941625
   873   1             14.24298044              3.56074511            16.023352995
   874   1           15.1331667175      4.4509313874999998           16.9135392725
   875   1             14.24298044      5.3411176650000005             14.24298044
   876   1           15.1331667175      6.2313039425000003           15.1331667175
   877   1            16.023352995              3.56074511             14.24298044
   878   1           16.9135392725      4.4509313874999998           15.1331667175
   879   1            16.023352995      5.3411176650000005            16.023352995
   880   1           16.9135392725      6.2313039425000003           16.9135392725
   881   1             14.24298044      7.1214902200000001             1.780372555
   882   1           15.1331667175      8.0116764974999999      2.6705588325000003
   883   1             14.24298044      8.9018627749999997                       0
   884   1           15.1331667175      9.7920490525000012     0.89018627750000001
   885   1            16.023352995      7.1214902200000001                       0
   886   1           16.9135392725      8.0116764974999999     0.89018627750000001
   887   1            16.023352995      8.9018627749999997             1.780372555
   888   1           16.9135392725      9.7920490525000012      2.6705588325000003
   889   1             14.24298044      7.1214902200000001      5.3411176650000005
   890   1           15.1331667175      8.0116764974999999      6.2313039425000003
   891   1             14.24298044      8.9018627749999997              3.56074511
   892   1           15.1331667175      9.7920490525000012      4.4509313874999998
   893   1            16.023352995      7.1214902200000001              3.56074511
   894   1           16.9135392725      8.0116764974999999      4.4509313874999998
   895   1            16.023352995      8.9018627749999997      5.3411176650000005
   896   1           16.9135392725      9.7920490525000012      6.2313039425000003
   897   1             14.24298044      7.1214902200000001      8.9018627749999997
   898   1           15.1331667175      8.0116764974999999      9.7920490525000012
   899   1             14.24298044      8.9018627749999997      7.1214902200000001
   900   1           15.1331667175      9.7920490525000012      8.0116764974999999
   901   1            16.023352995      7.1214902200000001      7.1214902200000001
   902   1           16.9135392725      8.0116764974999999      8.0116764974999999
   903   1            16.023352995      8.9018627749999997      8.9018627749999997
   904   1           16.9135392725      9.7920490525000012      9.7920490525000012
   905   1             14.24298044      7.1214902200000001      12.462607885000001
   906   1           15.1331667175      8.0116764974999999           13.3527941625
   907   1             14.24298044      8.9018627749999997      10.682235330000001
   908   1           15.1331667175      9.7920490525000012      11.572421607500001
   909   1            16.023352995      7.1214902200000001      10.682235330000001
   910   1           16.9135392725      8.0116764974999999      11.572421607500001
   911   1            16.023352995      8.9018627749999997      12.462607885000001
   912   1           16.9135392725      9.7920490525000012           13.3527941625
   913   1             14.24298044      7.1214902200000001            16.023352995
   914   1           15.1331667175      8.0116764974999999           16.9135392725
   915   1             14.24298044      8.9018627749999997             14.24298044
   916   1           15.1331667175      9.7920490525000012           15.1331667175
   917   1            16.023352995      7.1214902200000001             14.24298044
   918   1           16.9135392725      8.0116764974999999           15.1331667175
   919   1            16.023352995      8.9018627749999997            16.023352995
   920   1           16.9135392725      9.7920490525000012           16.9135392725
   921   1             14.24298044      10.682235330000001             1.780372555
   922   1           15.1331667175      11.572421607500001      2.6705588325000003
   923   1             14.24298044      12.462607885000001                       0
   924   1           15.1331667175           13.3527941625     0.89018627750000001
   925   1            16.023352995      10.682235330000001                       0
   926   1           16.9135392725      11.572421607500001     0.89018627750000001
   927   1            16.023352995      12.462607885000001             1.780372555
   928   1           16.9135392725           13.3527941625      2.6705588325000003
   929   1             14.24298044      10.682235330000001      5.3411176650000005
   930   1           15.1331667175      11.572421607500001      6.2313039425000003
   931   1             14.24298044      12.462607885000001              3.56074511
   932   1           15.1331667175           13.3527941625      4.4509313874999998
   933   1            16.023352995      10.682235330000001              3.56074511
   934   1           16.9135392725      11.572421607500001      4.4509313874999998
   935   1            16.023352995      12.462607885000001      5.3411176650000005
   936   1           16.9135392725           13.3527941625      6.2313039425000003
   937   1             14.24298044      10.682235330000001      8.9018627749999997
   938   1           15.1331667175      11.572421607500001      9.7920490525000012
   939   1             14.24298044      12.462607885000001      7.1214902200000001
   940   1           15.1331667175           13.3527941625      8.0116764974999999
   941   1            16.023352995      10.682235330000001      7.1214902200000001
   942   1           16.9135392725      11.572421607500001      8.0116764974999999
   943   1            16.023352995      12.462607885000001      8.9018627749999997
   944   1           16.9135392725           13.3527941625      9.7920490525000012
   945   1             14.24298044      10.682235330000001      12.462607885000001
   946   1           15.1331667175      11.572421607500001           13.3527941625
   947   1             14.24298044      12.462607885000001      10.682235330000001
   948   1           15.1331667175           13.3527941625      11.572421607500001
   949   1            16.023352995      10.682235330000001      10.682235330000001
   950   1           16.9135392725      11.572421607500001      11.572421607500001
   951   1            16.023352995      12.462607885000001      12.462607885000001
   952   1           16.9135392725           13.3527941625           13.3527941625
   953   1             14.24298044      10.682235330000001            16.023352995
   954   1           15.1331667175      11.572421607500001           16.9135392725
   955   1             14.24298044      12.462607885000001             14.24298044
   956   1           15.1331667175           13.3527941625           15.1331667175
   957   1            16.023352995      10.682235330000001             14.24298044
   958   1           16.9135392725      11.572421607500001           15.1331667175
   959   1            16.023352995      12.462607885000001            16.023352995
   960   1           16.9135392725           13.3527941625           16.9135392725
   961   1             14.24298044             14.24298044             1.780372555
   962   1           15.1331667175           15.1331667175      2.6705588325000003
   963   1             14.24298044            16.023352995                       0
   964   1           15.1331667175           16.9135392725     0.89018627750000001
   965   1            16.023352995             14.24298044                       0
   966   1           16.9135392725           15.1331667175     0.89018627750000001
   967   1            16.023352995            16.023352995             1.780372555
   968   1           16.9135392725           16.9135392725      2.6705588325000003
   969   1             14.24298044             14.24298044      5.3411176650000005
   970   1           15.1331667175           15.1331667175      6.2313039425000003
   971   1             14.24298044            16.023352995              3.56074511
   972   1           15.1331667175           16.9135392725      4.4509313874999998
   973   1            16.023352995             14.24298044              3.56074511
   974   1           16.9135392725           15.1331667175      4.4509313874999998
   975   1            16.023352995            16.023352995      5.3411176650000005
   976   1           16.9135392725           16.9135392725      6.2313039425000003
   977   1             14.24298044             14.24298044      8.9018627749999997
   978   1           15.1331667175           15.1331667175      9.7920490525000012
   979   1             14.24298044            16.023352995      7.1214902200000001
   980   1           15.1331667175           16.9135392725      8.0116764974999999
   981   1            16.023352995             14.24298044      7.1214902200000001
   982   1           16.9135392725           15.1331667175      8.0116764974999999
   983   1            16.023352995            16.023352995      8.9018627749999997
   984   1           16.9135392725           16.9135392725      9.7920490525000012
   985   1             14.24298044             14.24298044      12.462607885000001
   986   1           15.1331667175           15.1331667175           13.3527941625
   987   1             14.24298044            16.023352995      10.682235330000001
   988   1           15.1331667175           16.9135392725      11.572421607500001
   989   1            16.023352995             14.24298044      10.682235330000001
   990   1           16.9135392725           15.1331667175      11.572421607500001
   991   1            16.023352995            16.023352995      12.462607885000001
   992   1           16.9135392725           16.9135392725           13.3527941625
   993   1             14.24298044             14.24298044            16.023352995
   994   1           15.1331667175           15.1331667175           16.9135392725
   995   1             14.24298044            16.023352995             14.24298044
   996   1           15.1331667175           16.9135392725           15.1331667175
   997   1            16.023352995             14.24298044             14.24298044
   998   1           16.9135392725           15.1331667175           15.1331667175
   999   1            16.023352995            16.023352995            16.023352995
  1000   1           16.9135392725           16.9135392725           16.9135392725
