(written by ASE)

512 atoms
1 atom types

0.0       17.34339068388179  xlo xhi
0.0      10.013211280000004  ylo yhi
0.0             16.67587524  zlo zhi

Masses

     1      12.010999996910238 # C

Atoms # atomic

     1   1      3.6132063780225474      1.2516514100000005      0.2618335452511335
     2   1     0.72264129294790025              1.25165141      2.3463179502511333
     3   1     0.72264129294790025              1.25165141      3.9071352647488666
     4   1      3.6132063780225474      1.2516514100000005      1.8226508597488666
     5   1      1.4452825425373237  1.5069519744794942e-16      0.2618335452511335
     6   1      2.8905651284331233  3.4212772902441859e-16      2.3463179502511333
     7   1      2.8905651284331233  3.4212772902441859e-16      3.9071352647488666
     8   1      1.4452825425373237  1.5069519744794942e-16      1.8226508597488666
     9   1      3.6132063780225474      1.2516514100000005      4.4308023552511333
    10   1     0.72264129294790025              1.25165141      6.5152867602511328
    11   1     0.72264129294790025              1.25165141      8.0761040747488657
    12   1      3.6132063780225474      1.2516514100000005      5.9916196697488662
    13   1      1.4452825425373237  1.5069519744794942e-16      4.4308023552511333
    14   1      2.8905651284331233  3.4212772902441859e-16      6.5152867602511328
    15   1      2.8905651284331233  3.4212772902441859e-16      8.0761040747488657
    16   1      1.4452825425373237  1.5069519744794942e-16      5.9916196697488662
    17   1      3.6132063780225474      1.2516514100000005      8.5997711652511342
    18   1     0.72264129294790025              1.25165141      10.684255570251134
    19   1     0.72264129294790025              1.25165141      12.245072884748867
    20   1      3.6132063780225474      1.2516514100000005      10.160588479748867
    21   1      1.4452825425373237  1.5069519744794942e-16      8.5997711652511342
    22   1      2.8905651284331233  3.4212772902441859e-16      10.684255570251134
    23   1      2.8905651284331233  3.4212772902441859e-16      12.245072884748867
    24   1      1.4452825425373237  1.5069519744794942e-16      10.160588479748867
    25   1      3.6132063780225474      1.2516514100000005      12.768739975251135
    26   1     0.72264129294790025              1.25165141      14.853224380251135
    27   1     0.72264129294790025              1.25165141      16.414041694748867
    28   1      3.6132063780225474      1.2516514100000005      14.329557289748868
    29   1      1.4452825425373237  1.5069519744794942e-16      12.768739975251135
    30   1      2.8905651284331233  3.4212772902441859e-16      14.853224380251135
    31   1      2.8905651284331233  3.4212772902441859e-16      16.414041694748867
    32   1      1.4452825425373237  1.5069519744794942e-16      14.329557289748868
    33   1      3.6132063780225474      3.7549542300000001      0.2618335452511335
    34   1     0.72264129294790014      3.7549542300000001      2.3463179502511333
    35   1     0.72264129294790014      3.7549542300000001      3.9071352647488666
    36   1      3.6132063780225474      3.7549542300000001      1.8226508597488666
    37   1      1.4452825425373239              2.50330282      0.2618335452511335
    38   1      2.8905651284331237      2.5033028200000005      2.3463179502511333
    39   1      2.8905651284331237      2.5033028200000005      3.9071352647488666
    40   1      1.4452825425373239              2.50330282      1.8226508597488666
    41   1      3.6132063780225474      3.7549542300000001      4.4308023552511333
    42   1     0.72264129294790014      3.7549542300000001      6.5152867602511328
    43   1     0.72264129294790014      3.7549542300000001      8.0761040747488657
    44   1      3.6132063780225474      3.7549542300000001      5.9916196697488662
    45   1      1.4452825425373239              2.50330282      4.4308023552511333
    46   1      2.8905651284331237      2.5033028200000005      6.5152867602511328
    47   1      2.8905651284331237      2.5033028200000005      8.0761040747488657
    48   1      1.4452825425373239              2.50330282      5.9916196697488662
    49   1      3.6132063780225474      3.7549542300000001      8.5997711652511342
    50   1     0.72264129294790014      3.7549542300000001      10.684255570251134
    51   1     0.72264129294790014      3.7549542300000001      12.245072884748867
    52   1      3.6132063780225474      3.7549542300000001      10.160588479748867
    53   1      1.4452825425373239              2.50330282      8.5997711652511342
    54   1      2.8905651284331237      2.5033028200000005      10.684255570251134
    55   1      2.8905651284331237      2.5033028200000005      12.245072884748867
    56   1      1.4452825425373239              2.50330282      10.160588479748867
    57   1      3.6132063780225474      3.7549542300000001      12.768739975251135
    58   1     0.72264129294790014      3.7549542300000001      14.853224380251135
    59   1     0.72264129294790014      3.7549542300000001      16.414041694748867
    60   1      3.6132063780225474      3.7549542300000001      14.329557289748868
    61   1      1.4452825425373239              2.50330282      12.768739975251135
    62   1      2.8905651284331237      2.5033028200000005      14.853224380251135
    63   1      2.8905651284331237      2.5033028200000005      16.414041694748867
    64   1      1.4452825425373239              2.50330282      14.329557289748868
    65   1      3.6132063780225478       6.258257050000001      0.2618335452511335
    66   1      0.7226412929479008      6.2582570500000001      2.3463179502511333
    67   1      0.7226412929479008      6.2582570500000001      3.9071352647488666
    68   1      3.6132063780225478       6.258257050000001      1.8226508597488666
    69   1      1.4452825425373237      5.0066056400000001      0.2618335452511335
    70   1      2.8905651284331229      5.0066056400000001      2.3463179502511333
    71   1      2.8905651284331229      5.0066056400000001      3.9071352647488666
    72   1      1.4452825425373237      5.0066056400000001      1.8226508597488666
    73   1      3.6132063780225478       6.258257050000001      4.4308023552511333
    74   1      0.7226412929479008      6.2582570500000001      6.5152867602511328
    75   1      0.7226412929479008      6.2582570500000001      8.0761040747488657
    76   1      3.6132063780225478       6.258257050000001      5.9916196697488662
    77   1      1.4452825425373237      5.0066056400000001      4.4308023552511333
    78   1      2.8905651284331229      5.0066056400000001      6.5152867602511328
    79   1      2.8905651284331229      5.0066056400000001      8.0761040747488657
    80   1      1.4452825425373237      5.0066056400000001      5.9916196697488662
    81   1      3.6132063780225478       6.258257050000001      8.5997711652511342
    82   1      0.7226412929479008      6.2582570500000001      10.684255570251134
    83   1      0.7226412929479008      6.2582570500000001      12.245072884748867
    84   1      3.6132063780225478       6.258257050000001      10.160588479748867
    85   1      1.4452825425373237      5.0066056400000001      8.5997711652511342
    86   1      2.8905651284331229      5.0066056400000001      10.684255570251134
    87   1      2.8905651284331229      5.0066056400000001      12.245072884748867
    88   1      1.4452825425373237      5.0066056400000001      10.160588479748867
    89   1      3.6132063780225478       6.258257050000001      12.768739975251135
    90   1      0.7226412929479008      6.2582570500000001      14.853224380251135
    91   1      0.7226412929479008      6.2582570500000001      16.414041694748867
    92   1      3.6132063780225478       6.258257050000001      14.329557289748868
    93   1      1.4452825425373237      5.0066056400000001      12.768739975251135
    94   1      2.8905651284331229      5.0066056400000001      14.853224380251135
    95   1      2.8905651284331229      5.0066056400000001      16.414041694748867
    96   1      1.4452825425373237      5.0066056400000001      14.329557289748868
    97   1      3.6132063780225478       8.761559870000001      0.2618335452511335
    98   1     0.72264129294790014      8.7615598699999993      2.3463179502511333
    99   1     0.72264129294790014      8.7615598699999993      3.9071352647488666
   100   1      3.6132063780225478       8.761559870000001      1.8226508597488666
   101   1      1.4452825425373244      7.5099084600000001      0.2618335452511335
   102   1      2.8905651284331237      7.5099084600000001      2.3463179502511333
   103   1      2.8905651284331237      7.5099084600000001      3.9071352647488666
   104   1      1.4452825425373244      7.5099084600000001      1.8226508597488666
   105   1      3.6132063780225478       8.761559870000001      4.4308023552511333
   106   1     0.72264129294790014      8.7615598699999993      6.5152867602511328
   107   1     0.72264129294790014      8.7615598699999993      8.0761040747488657
   108   1      3.6132063780225478       8.761559870000001      5.9916196697488662
   109   1      1.4452825425373244      7.5099084600000001      4.4308023552511333
   110   1      2.8905651284331237      7.5099084600000001      6.5152867602511328
   111   1      2.8905651284331237      7.5099084600000001      8.0761040747488657
   112   1      1.4452825425373244      7.5099084600000001      5.9916196697488662
   113   1      3.6132063780225478       8.761559870000001      8.5997711652511342
   114   1     0.72264129294790014      8.7615598699999993      10.684255570251134
   115   1     0.72264129294790014      8.7615598699999993      12.245072884748867
   116   1      3.6132063780225478       8.761559870000001      10.160588479748867
   117   1      1.4452825425373244      7.5099084600000001      8.5997711652511342
   118   1      2.8905651284331237      7.5099084600000001      10.684255570251134
   119   1      2.8905651284331237      7.5099084600000001      12.245072884748867
   120   1      1.4452825425373244      7.5099084600000001      10.160588479748867
   121   1      3.6132063780225478       8.761559870000001      12.768739975251135
   122   1     0.72264129294790014      8.7615598699999993      14.853224380251135
   123   1     0.72264129294790014      8.7615598699999993      16.414041694748867
   124   1      3.6132063780225478       8.761559870000001      14.329557289748868
   125   1      1.4452825425373244      7.5099084600000001      12.768739975251135
   126   1      2.8905651284331237      7.5099084600000001      14.853224380251135
   127   1      2.8905651284331237      7.5099084600000001      16.414041694748867
   128   1      1.4452825425373244      7.5099084600000001      14.329557289748868
   129   1      7.9490540489929939      1.2516514100000005      0.2618335452511335
   130   1      5.0584889639183475      1.2516514100000002      2.3463179502511333
   131   1      5.0584889639183475      1.2516514100000002      3.9071352647488666
   132   1      7.9490540489929939      1.2516514100000005      1.8226508597488666
   133   1      5.7811302135077707  4.8097019156863607e-16      0.2618335452511335
   134   1      7.2264127994035707  7.9829919375095839e-16      2.3463179502511333
   135   1      7.2264127994035707  7.9829919375095839e-16      3.9071352647488666
   136   1      5.7811302135077707  4.8097019156863607e-16      1.8226508597488666
   137   1      7.9490540489929939      1.2516514100000005      4.4308023552511333
   138   1      5.0584889639183475      1.2516514100000002      6.5152867602511328
   139   1      5.0584889639183475      1.2516514100000002      8.0761040747488657
   140   1      7.9490540489929939      1.2516514100000005      5.9916196697488662
   141   1      5.7811302135077707  4.8097019156863607e-16      4.4308023552511333
   142   1      7.2264127994035707  7.9829919375095839e-16      6.5152867602511328
   143   1      7.2264127994035707  7.9829919375095839e-16      8.0761040747488657
   144   1      5.7811302135077707  4.8097019156863607e-16      5.9916196697488662
   145   1      7.9490540489929939      1.2516514100000005      8.5997711652511342
   146   1      5.0584889639183475      1.2516514100000002      10.684255570251134
   147   1      5.0584889639183475      1.2516514100000002      12.245072884748867
   148   1      7.9490540489929939      1.2516514100000005      10.160588479748867
   149   1      5.7811302135077707  4.8097019156863607e-16      8.5997711652511342
   150   1      7.2264127994035707  7.9829919375095839e-16      10.684255570251134
   151   1      7.2264127994035707  7.9829919375095839e-16      12.245072884748867
   152   1      5.7811302135077707  4.8097019156863607e-16      10.160588479748867
   153   1      7.9490540489929939      1.2516514100000005      12.768739975251135
   154   1      5.0584889639183475      1.2516514100000002      14.853224380251135
   155   1      5.0584889639183475      1.2516514100000002      16.414041694748867
   156   1      7.9490540489929939      1.2516514100000005      14.329557289748868
   157   1      5.7811302135077707  4.8097019156863607e-16      12.768739975251135
   158   1      7.2264127994035707  7.9829919375095839e-16      14.853224380251135
   159   1      7.2264127994035707  7.9829919375095839e-16      16.414041694748867
   160   1      5.7811302135077707  4.8097019156863607e-16      14.329557289748868
   161   1      7.9490540489929948      3.7549542300000005      0.2618335452511335
   162   1      5.0584889639183475      3.7549542300000005      2.3463179502511333
   163   1      5.0584889639183475      3.7549542300000005      3.9071352647488666
   164   1      7.9490540489929948      3.7549542300000005      1.8226508597488666
   165   1      5.7811302135077716      2.5033028200000009      0.2618335452511335
   166   1      7.2264127994035707      2.5033028200000009      2.3463179502511333
   167   1      7.2264127994035707      2.5033028200000009      3.9071352647488666
   168   1      5.7811302135077716      2.5033028200000009      1.8226508597488666
   169   1      7.9490540489929948      3.7549542300000005      4.4308023552511333
   170   1      5.0584889639183475      3.7549542300000005      6.5152867602511328
   171   1      5.0584889639183475      3.7549542300000005      8.0761040747488657
   172   1      7.9490540489929948      3.7549542300000005      5.9916196697488662
   173   1      5.7811302135077716      2.5033028200000009      4.4308023552511333
   174   1      7.2264127994035707      2.5033028200000009      6.5152867602511328
   175   1      7.2264127994035707      2.5033028200000009      8.0761040747488657
   176   1      5.7811302135077716      2.5033028200000009      5.9916196697488662
   177   1      7.9490540489929948      3.7549542300000005      8.5997711652511342
   178   1      5.0584889639183475      3.7549542300000005      10.684255570251134
   179   1      5.0584889639183475      3.7549542300000005      12.245072884748867
   180   1      7.9490540489929948      3.7549542300000005      10.160588479748867
   181   1      5.7811302135077716      2.5033028200000009      8.5997711652511342
   182   1      7.2264127994035707      2.5033028200000009      10.684255570251134
   183   1      7.2264127994035707      2.5033028200000009      12.245072884748867
   184   1      5.7811302135077716      2.5033028200000009      10.160588479748867
   185   1      7.9490540489929948      3.7549542300000005      12.768739975251135
   186   1      5.0584889639183475      3.7549542300000005      14.853224380251135
   187   1      5.0584889639183475      3.7549542300000005      16.414041694748867
   188   1      7.9490540489929948      3.7549542300000005      14.329557289748868
   189   1      5.7811302135077716      2.5033028200000009      12.768739975251135
   190   1      7.2264127994035707      2.5033028200000009      14.853224380251135
   191   1      7.2264127994035707      2.5033028200000009      16.414041694748867
   192   1      5.7811302135077716      2.5033028200000009      14.329557289748868
   193   1      7.9490540489929948       6.258257050000001      0.2618335452511335
   194   1      5.0584889639183483       6.258257050000001      2.3463179502511333
   195   1      5.0584889639183483       6.258257050000001      3.9071352647488666
   196   1      7.9490540489929948       6.258257050000001      1.8226508597488666
   197   1      5.7811302135077725       5.006605640000001      0.2618335452511335
   198   1      7.2264127994035725      5.0066056400000019      2.3463179502511333
   199   1      7.2264127994035725      5.0066056400000019      3.9071352647488666
   200   1      5.7811302135077725       5.006605640000001      1.8226508597488666
   201   1      7.9490540489929948       6.258257050000001      4.4308023552511333
   202   1      5.0584889639183483       6.258257050000001      6.5152867602511328
   203   1      5.0584889639183483       6.258257050000001      8.0761040747488657
   204   1      7.9490540489929948       6.258257050000001      5.9916196697488662
   205   1      5.7811302135077725       5.006605640000001      4.4308023552511333
   206   1      7.2264127994035725      5.0066056400000019      6.5152867602511328
   207   1      7.2264127994035725      5.0066056400000019      8.0761040747488657
   208   1      5.7811302135077725       5.006605640000001      5.9916196697488662
   209   1      7.9490540489929948       6.258257050000001      8.5997711652511342
   210   1      5.0584889639183483       6.258257050000001      10.684255570251134
   211   1      5.0584889639183483       6.258257050000001      12.245072884748867
   212   1      7.9490540489929948       6.258257050000001      10.160588479748867
   213   1      5.7811302135077725       5.006605640000001      8.5997711652511342
   214   1      7.2264127994035725      5.0066056400000019      10.684255570251134
   215   1      7.2264127994035725      5.0066056400000019      12.245072884748867
   216   1      5.7811302135077725       5.006605640000001      10.160588479748867
   217   1      7.9490540489929948       6.258257050000001      12.768739975251135
   218   1      5.0584889639183483       6.258257050000001      14.853224380251135
   219   1      5.0584889639183483       6.258257050000001      16.414041694748867
   220   1      7.9490540489929948       6.258257050000001      14.329557289748868
   221   1      5.7811302135077725       5.006605640000001      12.768739975251135
   222   1      7.2264127994035725      5.0066056400000019      14.853224380251135
   223   1      7.2264127994035725      5.0066056400000019      16.414041694748867
   224   1      5.7811302135077725       5.006605640000001      14.329557289748868
   225   1      7.9490540489929957       8.761559870000001      0.2618335452511335
   226   1      5.0584889639183475       8.761559870000001      2.3463179502511333
   227   1      5.0584889639183475       8.761559870000001      3.9071352647488666
   228   1      7.9490540489929957       8.761559870000001      1.8226508597488666
   229   1      5.7811302135077716       7.509908460000001      0.2618335452511335
   230   1      7.2264127994035707      7.5099084600000001      2.3463179502511333
   231   1      7.2264127994035707      7.5099084600000001      3.9071352647488666
   232   1      5.7811302135077716       7.509908460000001      1.8226508597488666
   233   1      7.9490540489929957       8.761559870000001      4.4308023552511333
   234   1      5.0584889639183475       8.761559870000001      6.5152867602511328
   235   1      5.0584889639183475       8.761559870000001      8.0761040747488657
   236   1      7.9490540489929957       8.761559870000001      5.9916196697488662
   237   1      5.7811302135077716       7.509908460000001      4.4308023552511333
   238   1      7.2264127994035707      7.5099084600000001      6.5152867602511328
   239   1      7.2264127994035707      7.5099084600000001      8.0761040747488657
   240   1      5.7811302135077716       7.509908460000001      5.9916196697488662
   241   1      7.9490540489929957       8.761559870000001      8.5997711652511342
   242   1      5.0584889639183475       8.761559870000001      10.684255570251134
   243   1      5.0584889639183475       8.761559870000001      12.245072884748867
   244   1      7.9490540489929957       8.761559870000001      10.160588479748867
   245   1      5.7811302135077716       7.509908460000001      8.5997711652511342
   246   1      7.2264127994035707      7.5099084600000001      10.684255570251134
   247   1      7.2264127994035707      7.5099084600000001      12.245072884748867
   248   1      5.7811302135077716       7.509908460000001      10.160588479748867
   249   1      7.9490540489929957       8.761559870000001      12.768739975251135
   250   1      5.0584889639183475       8.761559870000001      14.853224380251135
   251   1      5.0584889639183475       8.761559870000001      16.414041694748867
   252   1      7.9490540489929957       8.761559870000001      14.329557289748868
   253   1      5.7811302135077716       7.509908460000001      12.768739975251135
   254   1      7.2264127994035707      7.5099084600000001      14.853224380251135
   255   1      7.2264127994035707      7.5099084600000001      16.414041694748867
   256   1      5.7811302135077716       7.509908460000001      14.329557289748868
   257   1      12.284901719963441      1.2516514100000005      0.2618335452511335
   258   1      9.3943366348887949      1.2516514100000014      2.3463179502511333
   259   1      9.3943366348887949      1.2516514100000014      3.9071352647488666
   260   1      12.284901719963441      1.2516514100000005      1.8226508597488666
   261   1      10.116977884478217  4.6330411015843828e-16      0.2618335452511335
   262   1      11.562260470374019  1.2247223221908232e-15      2.3463179502511333
   263   1      11.562260470374019  1.2247223221908232e-15      3.9071352647488666
   264   1      10.116977884478217  4.6330411015843828e-16      1.8226508597488666
   265   1      12.284901719963441      1.2516514100000005      4.4308023552511333
   266   1      9.3943366348887949      1.2516514100000014      6.5152867602511328
   267   1      9.3943366348887949      1.2516514100000014      8.0761040747488657
   268   1      12.284901719963441      1.2516514100000005      5.9916196697488662
   269   1      10.116977884478217  4.6330411015843828e-16      4.4308023552511333
   270   1      11.562260470374019  1.2247223221908232e-15      6.5152867602511328
   271   1      11.562260470374019  1.2247223221908232e-15      8.0761040747488657
   272   1      10.116977884478217  4.6330411015843828e-16      5.9916196697488662
   273   1      12.284901719963441      1.2516514100000005      8.5997711652511342
   274   1      9.3943366348887949      1.2516514100000014      10.684255570251134
   275   1      9.3943366348887949      1.2516514100000014      12.245072884748867
   276   1      12.284901719963441      1.2516514100000005      10.160588479748867
   277   1      10.116977884478217  4.6330411015843828e-16      8.5997711652511342
   278   1      11.562260470374019  1.2247223221908232e-15      10.684255570251134
   279   1      11.562260470374019  1.2247223221908232e-15      12.245072884748867
   280   1      10.116977884478217  4.6330411015843828e-16      10.160588479748867
   281   1      12.284901719963441      1.2516514100000005      12.768739975251135
   282   1      9.3943366348887949      1.2516514100000014      14.853224380251135
   283   1      9.3943366348887949      1.2516514100000014      16.414041694748867
   284   1      12.284901719963441      1.2516514100000005      14.329557289748868
   285   1      10.116977884478217  4.6330411015843828e-16      12.768739975251135
   286   1      11.562260470374019  1.2247223221908232e-15      14.853224380251135
   287   1      11.562260470374019  1.2247223221908232e-15      16.414041694748867
   288   1      10.116977884478217  4.6330411015843828e-16      14.329557289748868
   289   1      12.284901719963441      3.7549542300000014      0.2618335452511335
   290   1      9.3943366348887949      3.7549542300000009      2.3463179502511333
   291   1      9.3943366348887949      3.7549542300000009      3.9071352647488666
   292   1      12.284901719963441      3.7549542300000014      1.8226508597488666
   293   1      10.116977884478217      2.5033028200000005      0.2618335452511335
   294   1      11.562260470374019      2.5033028200000014      2.3463179502511333
   295   1      11.562260470374019      2.5033028200000014      3.9071352647488666
   296   1      10.116977884478217      2.5033028200000005      1.8226508597488666
   297   1      12.284901719963441      3.7549542300000014      4.4308023552511333
   298   1      9.3943366348887949      3.7549542300000009      6.5152867602511328
   299   1      9.3943366348887949      3.7549542300000009      8.0761040747488657
   300   1      12.284901719963441      3.7549542300000014      5.9916196697488662
   301   1      10.116977884478217      2.5033028200000005      4.4308023552511333
   302   1      11.562260470374019      2.5033028200000014      6.5152867602511328
   303   1      11.562260470374019      2.5033028200000014      8.0761040747488657
   304   1      10.116977884478217      2.5033028200000005      5.9916196697488662
   305   1      12.284901719963441      3.7549542300000014      8.5997711652511342
   306   1      9.3943366348887949      3.7549542300000009      10.684255570251134
   307   1      9.3943366348887949      3.7549542300000009      12.245072884748867
   308   1      12.284901719963441      3.7549542300000014      10.160588479748867
   309   1      10.116977884478217      2.5033028200000005      8.5997711652511342
   310   1      11.562260470374019      2.5033028200000014      10.684255570251134
   311   1      11.562260470374019      2.5033028200000014      12.245072884748867
   312   1      10.116977884478217      2.5033028200000005      10.160588479748867
   313   1      12.284901719963441      3.7549542300000014      12.768739975251135
   314   1      9.3943366348887949      3.7549542300000009      14.853224380251135
   315   1      9.3943366348887949      3.7549542300000009      16.414041694748867
   316   1      12.284901719963441      3.7549542300000014      14.329557289748868
   317   1      10.116977884478217      2.5033028200000005      12.768739975251135
   318   1      11.562260470374019      2.5033028200000014      14.853224380251135
   319   1      11.562260470374019      2.5033028200000014      16.414041694748867
   320   1      10.116977884478217      2.5033028200000005      14.329557289748868
   321   1      12.284901719963443      6.2582570500000019      0.2618335452511335
   322   1      9.3943366348887967       6.258257050000001      2.3463179502511333
   323   1      9.3943366348887967       6.258257050000001      3.9071352647488666
   324   1      12.284901719963443      6.2582570500000019      1.8226508597488666
   325   1      10.116977884478219       5.006605640000001      0.2618335452511335
   326   1      11.562260470374019      5.0066056400000027      2.3463179502511333
   327   1      11.562260470374019      5.0066056400000027      3.9071352647488666
   328   1      10.116977884478219       5.006605640000001      1.8226508597488666
   329   1      12.284901719963443      6.2582570500000019      4.4308023552511333
   330   1      9.3943366348887967       6.258257050000001      6.5152867602511328
   331   1      9.3943366348887967       6.258257050000001      8.0761040747488657
   332   1      12.284901719963443      6.2582570500000019      5.9916196697488662
   333   1      10.116977884478219       5.006605640000001      4.4308023552511333
   334   1      11.562260470374019      5.0066056400000027      6.5152867602511328
   335   1      11.562260470374019      5.0066056400000027      8.0761040747488657
   336   1      10.116977884478219       5.006605640000001      5.9916196697488662
   337   1      12.284901719963443      6.2582570500000019      8.5997711652511342
   338   1      9.3943366348887967       6.258257050000001      10.684255570251134
   339   1      9.3943366348887967       6.258257050000001      12.245072884748867
   340   1      12.284901719963443      6.2582570500000019      10.160588479748867
   341   1      10.116977884478219       5.006605640000001      8.5997711652511342
   342   1      11.562260470374019      5.0066056400000027      10.684255570251134
   343   1      11.562260470374019      5.0066056400000027      12.245072884748867
   344   1      10.116977884478219       5.006605640000001      10.160588479748867
   345   1      12.284901719963443      6.2582570500000019      12.768739975251135
   346   1      9.3943366348887967       6.258257050000001      14.853224380251135
   347   1      9.3943366348887967       6.258257050000001      16.414041694748867
   348   1      12.284901719963443      6.2582570500000019      14.329557289748868
   349   1      10.116977884478219       5.006605640000001      12.768739975251135
   350   1      11.562260470374019      5.0066056400000027      14.853224380251135
   351   1      11.562260470374019      5.0066056400000027      16.414041694748867
   352   1      10.116977884478219       5.006605640000001      14.329557289748868
   353   1      12.284901719963443       8.761559870000001      0.2618335452511335
   354   1      9.3943366348887967      8.7615598700000028      2.3463179502511333
   355   1      9.3943366348887967      8.7615598700000028      3.9071352647488666
   356   1      12.284901719963443       8.761559870000001      1.8226508597488666
   357   1      10.116977884478219      7.5099084600000019      0.2618335452511335
   358   1      11.562260470374019      7.5099084600000028      2.3463179502511333
   359   1      11.562260470374019      7.5099084600000028      3.9071352647488666
   360   1      10.116977884478219      7.5099084600000019      1.8226508597488666
   361   1      12.284901719963443       8.761559870000001      4.4308023552511333
   362   1      9.3943366348887967      8.7615598700000028      6.5152867602511328
   363   1      9.3943366348887967      8.7615598700000028      8.0761040747488657
   364   1      12.284901719963443       8.761559870000001      5.9916196697488662
   365   1      10.116977884478219      7.5099084600000019      4.4308023552511333
   366   1      11.562260470374019      7.5099084600000028      6.5152867602511328
   367   1      11.562260470374019      7.5099084600000028      8.0761040747488657
   368   1      10.116977884478219      7.5099084600000019      5.9916196697488662
   369   1      12.284901719963443       8.761559870000001      8.5997711652511342
   370   1      9.3943366348887967      8.7615598700000028      10.684255570251134
   371   1      9.3943366348887967      8.7615598700000028      12.245072884748867
   372   1      12.284901719963443       8.761559870000001      10.160588479748867
   373   1      10.116977884478219      7.5099084600000019      8.5997711652511342
   374   1      11.562260470374019      7.5099084600000028      10.684255570251134
   375   1      11.562260470374019      7.5099084600000028      12.245072884748867
   376   1      10.116977884478219      7.5099084600000019      10.160588479748867
   377   1      12.284901719963443       8.761559870000001      12.768739975251135
   378   1      9.3943366348887967      8.7615598700000028      14.853224380251135
   379   1      9.3943366348887967      8.7615598700000028      16.414041694748867
   380   1      12.284901719963443       8.761559870000001      14.329557289748868
   381   1      10.116977884478219      7.5099084600000019      12.768739975251135
   382   1      11.562260470374019      7.5099084600000028      14.853224380251135
   383   1      11.562260470374019      7.5099084600000028      16.414041694748867
   384   1      10.116977884478219      7.5099084600000019      14.329557289748868
   385   1      16.620749390933888      1.2516514100000014      0.2618335452511335
   386   1      13.730184305859241      1.2516514100000022      2.3463179502511333
   387   1      13.730184305859241      1.2516514100000022      3.9071352647488666
   388   1      16.620749390933888      1.2516514100000014      1.8226508597488666
   389   1      14.452825555448664  1.3338164484483657e-15      0.2618335452511335
   390   1      15.898108141344466  2.0952346604807506e-15      2.3463179502511333
   391   1      15.898108141344466  2.0952346604807506e-15      3.9071352647488666
   392   1      14.452825555448664  1.3338164484483657e-15      1.8226508597488666
   393   1      16.620749390933888      1.2516514100000014      4.4308023552511333
   394   1      13.730184305859241      1.2516514100000022      6.5152867602511328
   395   1      13.730184305859241      1.2516514100000022      8.0761040747488657
   396   1      16.620749390933888      1.2516514100000014      5.9916196697488662
   397   1      14.452825555448664  1.3338164484483657e-15      4.4308023552511333
   398   1      15.898108141344466  2.0952346604807506e-15      6.5152867602511328
   399   1      15.898108141344466  2.0952346604807506e-15      8.0761040747488657
   400   1      14.452825555448664  1.3338164484483657e-15      5.9916196697488662
   401   1      16.620749390933888      1.2516514100000014      8.5997711652511342
   402   1      13.730184305859241      1.2516514100000022      10.684255570251134
   403   1      13.730184305859241      1.2516514100000022      12.245072884748867
   404   1      16.620749390933888      1.2516514100000014      10.160588479748867
   405   1      14.452825555448664  1.3338164484483657e-15      8.5997711652511342
   406   1      15.898108141344466  2.0952346604807506e-15      10.684255570251134
   407   1      15.898108141344466  2.0952346604807506e-15      12.245072884748867
   408   1      14.452825555448664  1.3338164484483657e-15      10.160588479748867
   409   1      16.620749390933888      1.2516514100000014      12.768739975251135
   410   1      13.730184305859241      1.2516514100000022      14.853224380251135
   411   1      13.730184305859241      1.2516514100000022      16.414041694748867
   412   1      16.620749390933888      1.2516514100000014      14.329557289748868
   413   1      14.452825555448664  1.3338164484483657e-15      12.768739975251135
   414   1      15.898108141344466  2.0952346604807506e-15      14.853224380251135
   415   1      15.898108141344466  2.0952346604807506e-15      16.414041694748867
   416   1      14.452825555448664  1.3338164484483657e-15      14.329557289748868
   417   1      16.620749390933891      3.7549542300000023      0.2618335452511335
   418   1      13.730184305859243      3.7549542300000023      2.3463179502511333
   419   1      13.730184305859243      3.7549542300000023      3.9071352647488666
   420   1      16.620749390933891      3.7549542300000023      1.8226508597488666
   421   1      14.452825555448666      2.5033028200000014      0.2618335452511335
   422   1      15.898108141344466      2.5033028200000023      2.3463179502511333
   423   1      15.898108141344466      2.5033028200000023      3.9071352647488666
   424   1      14.452825555448666      2.5033028200000014      1.8226508597488666
   425   1      16.620749390933891      3.7549542300000023      4.4308023552511333
   426   1      13.730184305859243      3.7549542300000023      6.5152867602511328
   427   1      13.730184305859243      3.7549542300000023      8.0761040747488657
   428   1      16.620749390933891      3.7549542300000023      5.9916196697488662
   429   1      14.452825555448666      2.5033028200000014      4.4308023552511333
   430   1      15.898108141344466      2.5033028200000023      6.5152867602511328
   431   1      15.898108141344466      2.5033028200000023      8.0761040747488657
   432   1      14.452825555448666      2.5033028200000014      5.9916196697488662
   433   1      16.620749390933891      3.7549542300000023      8.5997711652511342
   434   1      13.730184305859243      3.7549542300000023      10.684255570251134
   435   1      13.730184305859243      3.7549542300000023      12.245072884748867
   436   1      16.620749390933891      3.7549542300000023      10.160588479748867
   437   1      14.452825555448666      2.5033028200000014      8.5997711652511342
   438   1      15.898108141344466      2.5033028200000023      10.684255570251134
   439   1      15.898108141344466      2.5033028200000023      12.245072884748867
   440   1      14.452825555448666      2.5033028200000014      10.160588479748867
   441   1      16.620749390933891      3.7549542300000023      12.768739975251135
   442   1      13.730184305859243      3.7549542300000023      14.853224380251135
   443   1      13.730184305859243      3.7549542300000023      16.414041694748867
   444   1      16.620749390933891      3.7549542300000023      14.329557289748868
   445   1      14.452825555448666      2.5033028200000014      12.768739975251135
   446   1      15.898108141344466      2.5033028200000023      14.853224380251135
   447   1      15.898108141344466      2.5033028200000023      16.414041694748867
   448   1      14.452825555448666      2.5033028200000014      14.329557289748868
   449   1      16.620749390933891      6.2582570500000028      0.2618335452511335
   450   1      13.730184305859243      6.2582570500000019      2.3463179502511333
   451   1      13.730184305859243      6.2582570500000019      3.9071352647488666
   452   1      16.620749390933891      6.2582570500000028      1.8226508597488666
   453   1      14.452825555448666      5.0066056400000019      0.2618335452511335
   454   1      15.898108141344467      5.0066056400000019      2.3463179502511333
   455   1      15.898108141344467      5.0066056400000019      3.9071352647488666
   456   1      14.452825555448666      5.0066056400000019      1.8226508597488666
   457   1      16.620749390933891      6.2582570500000028      4.4308023552511333
   458   1      13.730184305859243      6.2582570500000019      6.5152867602511328
   459   1      13.730184305859243      6.2582570500000019      8.0761040747488657
   460   1      16.620749390933891      6.2582570500000028      5.9916196697488662
   461   1      14.452825555448666      5.0066056400000019      4.4308023552511333
   462   1      15.898108141344467      5.0066056400000019      6.5152867602511328
   463   1      15.898108141344467      5.0066056400000019      8.0761040747488657
   464   1      14.452825555448666      5.0066056400000019      5.9916196697488662
   465   1      16.620749390933891      6.2582570500000028      8.5997711652511342
   466   1      13.730184305859243      6.2582570500000019      10.684255570251134
   467   1      13.730184305859243      6.2582570500000019      12.245072884748867
   468   1      16.620749390933891      6.2582570500000028      10.160588479748867
   469   1      14.452825555448666      5.0066056400000019      8.5997711652511342
   470   1      15.898108141344467      5.0066056400000019      10.684255570251134
   471   1      15.898108141344467      5.0066056400000019      12.245072884748867
   472   1      14.452825555448666      5.0066056400000019      10.160588479748867
   473   1      16.620749390933891      6.2582570500000028      12.768739975251135
   474   1      13.730184305859243      6.2582570500000019      14.853224380251135
   475   1      13.730184305859243      6.2582570500000019      16.414041694748867
   476   1      16.620749390933891      6.2582570500000028      14.329557289748868
   477   1      14.452825555448666      5.0066056400000019      12.768739975251135
   478   1      15.898108141344467      5.0066056400000019      14.853224380251135
   479   1      15.898108141344467      5.0066056400000019      16.414041694748867
   480   1      14.452825555448666      5.0066056400000019      14.329557289748868
   481   1      16.620749390933891      8.7615598700000028      0.2618335452511335
   482   1      13.730184305859243       8.761559870000001      2.3463179502511333
   483   1      13.730184305859243       8.761559870000001      3.9071352647488666
   484   1      16.620749390933891      8.7615598700000028      1.8226508597488666
   485   1      14.452825555448667      7.5099084600000019      0.2618335452511335
   486   1      15.898108141344467      7.5099084600000028      2.3463179502511333
   487   1      15.898108141344467      7.5099084600000028      3.9071352647488666
   488   1      14.452825555448667      7.5099084600000019      1.8226508597488666
   489   1      16.620749390933891      8.7615598700000028      4.4308023552511333
   490   1      13.730184305859243       8.761559870000001      6.5152867602511328
   491   1      13.730184305859243       8.761559870000001      8.0761040747488657
   492   1      16.620749390933891      8.7615598700000028      5.9916196697488662
   493   1      14.452825555448667      7.5099084600000019      4.4308023552511333
   494   1      15.898108141344467      7.5099084600000028      6.5152867602511328
   495   1      15.898108141344467      7.5099084600000028      8.0761040747488657
   496   1      14.452825555448667      7.5099084600000019      5.9916196697488662
   497   1      16.620749390933891      8.7615598700000028      8.5997711652511342
   498   1      13.730184305859243       8.761559870000001      10.684255570251134
   499   1      13.730184305859243       8.761559870000001      12.245072884748867
   500   1      16.620749390933891      8.7615598700000028      10.160588479748867
   501   1      14.452825555448667      7.5099084600000019      8.5997711652511342
   502   1      15.898108141344467      7.5099084600000028      10.684255570251134
   503   1      15.898108141344467      7.5099084600000028      12.245072884748867
   504   1      14.452825555448667      7.5099084600000019      10.160588479748867
   505   1      16.620749390933891      8.7615598700000028      12.768739975251135
   506   1      13.730184305859243       8.761559870000001      14.853224380251135
   507   1      13.730184305859243       8.761559870000001      16.414041694748867
   508   1      16.620749390933891      8.7615598700000028      14.329557289748868
   509   1      14.452825555448667      7.5099084600000019      12.768739975251135
   510   1      15.898108141344467      7.5099084600000028      14.853224380251135
   511   1      15.898108141344467      7.5099084600000028      16.414041694748867
   512   1      14.452825555448667      7.5099084600000019      14.329557289748868
