LAMMPS data file via write_data, version 22 Jul 2025, timestep = 200001, units = metal

512 atoms
1 atom types

0.13925773154856635 16.95463754601454 xlo xhi
0.09688991619310183 9.772275123807187 ylo yhi
7.391060812871599 23.821231187130252 zlo zhi

Masses

1 12.01099999691024

Atoms # atomic

71 1 1.7738554440385064 2.1737616876006554 8.288067205689448 0 0 0
65 1 0.48883479827067644 2.2503708873059067 8.372667252674352 0 0 0
37 1 2.55090254317214 1.0655351339857777 8.377775570192211 0 0 0
35 1 3.8948861481528803 1.0829231552068457 8.211223479574526 0 0 0
193 1 4.6547602776482995 2.2298742275784753 7.852689356499658 0 0 0
199 1 6.123016815220282 2.3353951727810602 8.415250963672996 0 0 0
165 1 6.833313056163693 1.0475446858838264 8.058134856767376 0 0 0
163 1 8.131202900805857 1.0064428852967389 8.502269873234331 0 0 0
321 1 8.76816493910911 2.266194719199008 8.457182156762032 0 0 0
327 1 10.213318457113935 2.2378560532852365 8.45572376655494 0 0 0
293 1 10.884280957928745 1.0099597942096055 8.920205388067876 0 0 0
291 1 12.36861495393364 0.9628873004128753 8.750650031462728 0 0 0
449 1 13.19684542336548 2.2561975287824776 8.221820421187228 0 0 0
455 1 14.474622123040128 2.443421127757518 8.701396329713571 0 0 0
421 1 15.04739846181724 1.0317795830076375 8.221038266305754 0 0 0
419 1 16.47187254884618 0.9036590608001261 8.48637379839757 0 0 0
103 1 1.8491777492616701 4.6008473363624525 8.56026346678212 0 0 0
97 1 0.399501321022623 4.674867272014626 8.48492576346986 0 0 0
69 1 2.4951212511070406 3.4110678036586295 8.406463773433353 0 0 0
67 1 3.867120519770376 3.3793536980606858 8.35770937115332 0 0 0
225 1 4.601226129480458 4.6706271347346275 8.140321190759906 0 0 0
231 1 5.996472498422142 4.779694761827272 8.57723072465301 0 0 0
197 1 6.706298755128863 3.54970501592704 8.111405905812695 0 0 0
195 1 8.118221677433862 3.528668299509731 8.497597683463207 0 0 0
353 1 8.840212129557075 4.766162752189376 8.259856512324507 0 0 0
359 1 10.153646269227016 4.589973314203421 8.731328492792 0 0 0
325 1 10.991768021361837 3.3263053978884134 8.260026789044359 0 0 0
323 1 12.418703953623261 3.381643947470899 8.46058703536685 0 0 0
481 1 12.965650864325793 4.708705340474806 8.327225631947469 0 0 0
487 1 14.437650446825577 4.627268536674335 8.323141720230176 0 0 0
453 1 15.118807711539002 3.5182921432483316 8.342130175914976 0 0 0
451 1 16.477621044414676 3.540406688802002 8.409214560671636 0 0 0
7 1 1.752935896344205 7.011486377233861 8.388203540714088 0 -1 0
1 1 0.4140502924233328 7.102622356753079 8.18148116440804 0 -1 0
101 1 2.3802783394016664 5.697293419192853 8.066077409387004 0 0 0
99 1 3.8169834479629956 5.875799591203888 8.346207371420542 0 0 0
129 1 4.6147832544404945 7.030932296322817 8.942978531687135 0 -1 0
135 1 6.030531275603464 7.189723319260827 8.61704027207261 0 -1 0
229 1 6.7483968459852095 5.92268447138056 8.933483702854026 0 0 0
227 1 8.11331769892293 5.959295696132994 8.517736568422722 0 0 0
257 1 8.783671542030648 7.048534674973449 8.629123631143802 0 -1 0
263 1 10.246252316897976 7.126060915294007 8.794898841138018 0 -1 0
357 1 10.882626496247488 5.971540653244687 8.655850243816836 0 0 0
355 1 12.23288034169834 5.934775465040549 8.279430342136623 0 0 0
385 1 13.022486018562367 7.18692723969734 8.089429799522495 0 -1 0
391 1 14.316027019925615 6.929219964631092 8.425600797087087 0 -1 0
485 1 15.17985500725698 5.799692508590647 7.817244071249747 0 0 0
483 1 16.449544042618598 5.947039421611526 8.43507394013336 0 0 0
39 1 1.7767056931039689 9.506480370593145 8.107810130620006 0 -1 0
33 1 0.426135176316597 9.440910555820967 7.895648966302675 0 -1 0
5 1 2.536643532917179 8.265428377938488 8.591538362741385 0 -1 0
3 1 3.966423686880941 8.216234333405076 8.560014769068424 0 -1 0
161 1 4.647411738033361 9.661806014692424 8.464726815615986 0 -1 0
167 1 6.008377992051873 9.569273130901614 8.364211549322832 0 -1 0
133 1 6.625758083922518 8.362338010642354 8.795633351658964 0 -1 0
131 1 8.088766786448318 8.240693650188653 8.707556803113276 0 -1 0
289 1 8.901805981355377 9.523691310157204 8.145003033881991 0 -1 0
295 1 10.15765318359068 9.507778395678187 8.599565624417925 0 -1 0
261 1 10.866156964897911 8.398167871398325 8.680490265136854 0 -1 0
259 1 12.248495392009655 8.3098373689763 8.664870075287476 0 -1 0
417 1 13.011703705466049 9.36732429721572 8.441049882459465 0 -1 0
423 1 14.5120439954348 9.474061021983378 8.455307511779793 0 -1 0
389 1 15.162904035959109 8.170080243487767 8.35215414147148 0 -1 0
387 1 16.65285593284475 8.300937966444057 8.18850692462394 0 -1 0
100 1 1.1190629566071588 0.8800942057013452 10.03198668883901 0 1 0
2 1 0.3459588724442739 2.1084096998530493 10.509563806359786 0 0 0
102 1 2.515778147499496 1.0748435079591663 10.465268480933094 0 1 0
8 1 3.1910703978287085 2.295408139092279 10.159734531466064 0 0 0
130 1 4.449511795532243 2.2751087325266104 10.136846786397323 0 0 0
228 1 5.233766123914566 1.0263715345973203 10.216649481341092 0 1 0
230 1 6.628975823883663 0.9827382095481584 10.4344124032624 0 1 0
136 1 7.357975399831375 2.163589097577058 10.376428505988342 0 0 0
258 1 8.826256390251675 2.262907308915753 10.592706234536443 0 0 0
356 1 9.48659866240864 0.9851331132458868 10.4962161045589 0 1 0
358 1 10.804360115064181 1.1844572028829405 10.377878285499714 0 1 0
264 1 11.564701264006931 2.317781088446045 10.590689556466817 0 0 0
386 1 12.907591871240228 2.2387181592865044 10.599090079524757 0 0 0
484 1 13.641837336806379 0.9293419003429145 10.457992850887472 0 1 0
486 1 14.943424691107113 0.9519510554504588 10.345671435647464 0 1 0
392 1 15.77501946818447 2.1660489990064367 10.336295922721323 0 0 0
4 1 1.1125347291565697 3.3656500037882044 10.796867238235146 0 0 0
34 1 0.22095949824490077 4.624699122568627 10.643735182673163 0 0 0
6 1 2.3401137195814212 3.457224395273898 10.486662611604187 0 0 0
40 1 3.1500216151654645 4.627011800980921 10.397650231121599 0 0 0
162 1 4.49307628613576 4.588263092054356 10.304778447633556 0 0 0
132 1 5.101279116072615 3.3632768512484104 10.056029395945206 0 0 0
134 1 6.730054934929301 3.3963597243109196 10.189798042350256 0 0 0
168 1 7.322756679433445 4.622009985964314 10.880129995890039 0 0 0
290 1 8.720659477480204 4.648014529422474 10.428909529252016 0 0 0
260 1 9.522373810855296 3.4922355211940967 10.530588781247726 0 0 0
262 1 10.885945533155947 3.4677790167540685 10.733228529911095 0 0 0
296 1 11.704413198113835 4.6949122662535006 10.711000693995215 0 0 0
418 1 13.152196012536573 4.743995682820981 10.426144889356781 0 0 0
388 1 13.778383411259757 3.53892854347547 10.44538672029716 0 0 0
390 1 15.200533689270529 3.344835074273278 10.686146649259651 0 0 0
424 1 15.665213182554346 4.5839556047106464 10.401723092944565 0 0 0
36 1 0.9077565621571054 5.748765836545356 10.25225596416313 0 0 0
66 1 0.3702269286362796 7.0302786520200575 10.344188041908879 0 0 0
38 1 2.4703920408925493 5.852075365569991 10.406499994228703 0 0 0
72 1 3.1979301726385843 7.116858909819933 10.741747187194427 0 0 0
194 1 4.574774448335362 7.096748055032272 10.554297814566057 0 0 0
164 1 5.259861041521679 5.88160433154394 10.709178039579644 0 0 0
166 1 6.606368368748169 5.842903558880682 10.363772492784092 0 0 0
200 1 7.3246392950981924 6.927414449391837 10.993019664550609 0 0 0
322 1 8.655090224665967 6.9188998504776 10.721040487496147 0 0 0
292 1 9.397684194588406 5.802933673064966 10.529819326228663 0 0 0
294 1 10.798782836779473 5.8798962317839605 10.915548534499822 0 0 0
328 1 11.512862517568502 7.02722274467514 10.66274271676718 0 0 0
450 1 12.89848144923571 7.111520005457838 10.195129493575807 0 0 0
420 1 13.693074461017531 5.81739462820885 10.116524885240132 0 0 0
422 1 15.097853107878649 5.798107258214641 10.04587858848511 0 0 0
456 1 15.722879501803929 7.0374688382211925 10.108611837680561 0 0 0
68 1 1.1137694402396323 8.21025059746572 10.167388272976428 0 0 0
98 1 0.37312878180865994 9.373231085771327 10.066499234292973 0 0 0
70 1 2.5526093025065357 8.270998856657936 10.14540476937389 0 0 0
104 1 3.088899615352291 9.491538609812409 10.350904085173694 0 0 0
226 1 4.524350253320437 9.591343946110978 10.572604551450839 0 0 0
196 1 5.269707454830136 8.377714396634413 11.02044274463794 0 0 0
198 1 6.7071673718375076 8.18706502617976 10.825766559883544 0 0 0
232 1 7.409794502022711 9.339162407932768 10.840121681482128 0 0 0
354 1 8.819832071902894 9.263474218521413 10.840649624509416 0 0 0
324 1 9.501409059556273 8.049405551891157 10.850872800407776 0 0 0
326 1 10.938602362491203 8.14879741645455 10.807517466991586 0 0 0
360 1 11.560241703100726 9.424104736380865 10.64081647308127 0 0 0
482 1 12.91158826032702 9.436655075913588 10.587910445822045 0 0 0
452 1 13.654542459738206 8.299359427704399 10.261986795853833 0 0 0
454 1 15.061273838856932 8.068320758016633 10.546813071880281 0 0 0
488 1 15.700852029496264 9.375416828592122 10.218606292501997 0 0 0
137 1 1.4218856099770354 1.8940571574708416 12.269680517687673 0 0 0
107 1 0.8629724444810265 0.7513431608746207 12.159027434761079 0 1 0
143 1 2.9662007219009463 2.1255901716207295 12.410932182206551 0 0 0
237 1 3.7294921545335744 0.7087488635404352 12.332087513058585 0 1 0
265 1 5.812734188509082 1.9442655267662017 12.26385096192633 0 0 0
235 1 5.049861852108959 0.7344894275965249 12.53516451235582 0 1 0
271 1 7.142077365368389 1.8945287802802055 12.499209392776077 0 0 0
365 1 7.897328020903216 0.631184215700905 12.663851112103494 0 1 0
393 1 10.019257141958713 1.865064727228717 12.970496942508968 0 0 0
363 1 9.376587361588015 0.6489848347698797 12.866416711155926 0 1 0
399 1 11.36877067330845 1.863566660209977 12.708762373505916 0 0 0
493 1 12.249448161996698 0.610133624278471 12.75486334171266 0 1 0
9 1 14.21326178468645 1.9420060648548196 12.226013906527658 -1 0 0
491 1 13.581020864876033 0.6992085917075698 12.630894292943374 0 1 0
15 1 15.576059426326593 1.954537171577466 12.435240620856057 -1 0 0
109 1 16.24784645667914 0.7721910013021284 12.183759997659918 -1 1 0
11 1 0.8021293171185159 3.317903787145092 12.207628613797283 0 0 0
169 1 1.49579172575438 4.525393209811077 12.776351097418992 0 0 0
175 1 3.0557404540272963 4.565191326257187 12.542990690671282 0 0 0
141 1 3.7015286604346924 3.29402740824999 12.075234174391138 0 0 0
139 1 5.078528994629604 3.252429653477127 12.189634749279199 0 0 0
297 1 5.834962357225482 4.407452878624091 12.60626305347423 0 0 0
269 1 7.831016997061692 3.215633787165554 12.741371225075035 0 0 0
303 1 7.142404791391415 4.42992388348694 12.322224391996702 0 0 0
267 1 9.2244894162618 3.145939411718063 12.688329511467948 0 0 0
425 1 9.973590631783061 4.304062687205112 12.524422897006229 0 0 0
397 1 12.073699255001001 3.0709573319682364 12.595194980115622 0 0 0
431 1 11.466736557224536 4.26043899537209 12.819570570701568 0 0 0
395 1 13.44418027766429 3.057505332826527 12.435571228423015 0 0 0
41 1 14.228790638374521 4.341423205000064 12.481757137905308 -1 0 0
13 1 16.346405065486167 3.225300984965905 12.81772829439525 -1 0 0
47 1 15.62136655514956 4.453802230577422 12.50628164041073 -1 0 0
43 1 0.8547239595772393 5.67475573115061 12.329436321233947 0 0 0
201 1 1.6319365562998434 6.84786834056823 12.233196226490469 0 0 0
207 1 2.9979187657815123 6.989753593810316 12.22223525391426 0 0 0
173 1 3.732201460582909 5.7532766866262 12.344610112947507 0 0 0
171 1 5.126621845024562 5.462927225422399 12.200768264441004 0 0 0
329 1 5.760726355298709 6.881294905926993 12.796231687787351 0 0 0
301 1 7.905513197849105 5.50488907667372 12.741612477271909 0 0 0
335 1 7.181733698391575 6.84095735351842 12.43094663459664 0 0 0
299 1 9.249767729098581 5.493788344179829 12.840176863588344 0 0 0
457 1 10.020531618004386 6.6926195621735465 12.92178298104401 0 0 0
429 1 12.2518700059732 5.516026580928154 12.591811875288139 0 0 0
463 1 11.414409786899423 6.714575451233789 12.837452324393364 0 0 0
427 1 13.513390392223723 5.489109821947381 12.513773763979463 0 0 0
73 1 14.177338733380578 6.667811983226288 12.254724264805034 -1 0 0
45 1 16.188752406704673 5.621506264462731 12.277310973105887 -1 0 0
79 1 15.582285591504338 6.759233120147618 12.301601729047686 -1 0 0
75 1 0.9160175027516113 7.956105863939907 12.444776802708688 0 0 0
233 1 1.706969670961902 9.208625540746606 12.31094160363547 0 0 0
205 1 3.664464287047595 7.99447020808642 12.773557252603199 0 0 0
239 1 3.0313041880777734 9.175810242621651 12.48157894505418 0 0 0
203 1 5.073691401176894 8.037193191296907 12.46366706551025 0 0 0
361 1 5.827915506361721 9.250825136962881 13.023466921109044 0 0 0
333 1 7.769280745527709 7.9101882048228385 12.955493958998584 0 0 0
367 1 7.14488391987493 9.230437205969313 13.163321946732442 0 0 0
331 1 9.229250127351234 7.978106720096102 13.056391586562057 0 0 0
489 1 9.96883199261279 9.04458847977861 12.698473384844252 0 0 0
461 1 12.100069982622331 7.900706934222374 12.491664008976048 0 0 0
495 1 11.471613917019049 9.069354870098852 12.735055817183259 0 0 0
459 1 13.544272969698174 7.896698296633681 12.364229237968168 0 0 0
105 1 14.23837930659005 9.114306000751796 12.29937053530691 -1 0 0
77 1 16.41913267982281 7.994618077100564 12.083810470130759 -1 0 0
111 1 15.621762251048647 9.057798305888987 12.30538468995412 -1 0 0
78 1 1.487855653757119 1.7656236674239594 14.412239343143579 0 1 0
80 1 2.1781210731090064 0.6404327019347991 14.296918212195994 0 1 0
202 1 3.605138499764023 0.5883928906149913 14.668857180704817 0 1 0
204 1 4.3682729369770055 1.850699962766874 14.490011392657227 0 1 0
206 1 5.719181651863389 1.7579092609863138 14.387727248133828 0 1 0
208 1 6.468485008676731 0.6056147368565652 14.957694078401065 0 1 0
330 1 7.850615594818227 0.5919783010958244 14.833033562256128 0 1 0
332 1 8.475110255675794 1.929659277467914 14.65966793101199 0 1 0
334 1 9.689093088212314 2.0200140157711806 15.14453362197844 0 1 0
336 1 10.516828296618081 0.6932329340418688 14.705411564059998 0 1 0
458 1 11.90618630522148 0.6800900977004727 15.165362263159562 0 1 0
460 1 12.588598506457524 1.8080664039183196 14.409651587189803 0 1 0
462 1 13.994040078142364 1.765432574996872 14.519021459951377 0 1 0
464 1 14.76632083815192 0.5876868998376946 14.387820435311632 0 1 0
76 1 16.842934677509405 1.8355615647405616 14.510656158287375 -1 1 0
74 1 16.073775631906457 0.6703138194225458 14.429945432020435 -1 1 0
110 1 1.3355596434861798 4.33079567877201 14.319834431592081 0 1 0
108 1 16.864090176894678 4.242607784496841 14.65583396841416 -1 1 0
112 1 2.1898578821795573 2.966821582748854 14.584227483221701 0 1 0
234 1 3.638415399286859 3.040659509191573 14.253138959153288 0 1 0
236 1 4.37083642592469 4.2749116992125655 14.424937077525005 0 1 0
238 1 5.8276390750303895 4.3276867901368865 14.063606904154753 0 1 0
240 1 6.465876978832596 3.078756839334393 14.457406424122913 0 1 0
362 1 7.705693651006021 3.13766667629306 15.09342023229701 0 1 0
364 1 8.526505939662973 4.309164761363774 14.508481956026772 0 1 0
366 1 9.930590147976195 4.270133510519595 14.701736444458227 0 1 0
368 1 10.448224978334341 3.116658579922214 14.740538961845402 0 1 0
490 1 11.937017200877031 3.1579399685791567 14.69132151548584 0 1 0
492 1 12.648185054790545 4.367403585840426 14.652255150929737 0 1 0
494 1 14.077751253265118 4.275844569437335 14.971436179363193 0 1 0
496 1 14.684201546534847 2.9779755086074697 14.34507268838878 0 1 0
106 1 16.17494278165688 3.0114629609698693 14.145235447779623 -1 1 0
14 1 1.5031366607203278 6.731630968006047 14.346254398893176 0 0 0
12 1 0.1780574062564142 6.736184004698178 14.209021195512488 0 0 0
16 1 2.1645388048023033 5.450120990716861 14.641279482621542 0 0 0
138 1 3.602996855022436 5.485444098984295 14.541912283216694 0 0 0
140 1 4.258007685870794 6.712714992631495 14.676748809272558 0 0 0
142 1 5.730535600037894 6.7149060969886145 14.396576318625774 0 0 0
144 1 6.300159507669722 5.507227442669965 14.61414578681163 0 0 0
266 1 7.676855152981595 5.617509175756124 14.832382052407574 0 0 0
268 1 8.454356192938041 6.777503610864799 14.670948715056092 0 0 0
270 1 9.912259919723512 6.690612098041247 15.174002093969703 0 0 0
272 1 10.525336214945886 5.537070478930958 14.736117190048951 0 0 0
394 1 11.976526194166226 5.584579760992111 14.962325754852152 0 0 0
396 1 12.655700812227542 6.793150469403729 14.588198904609342 0 0 0
398 1 14.075604740502076 6.722240508859915 14.743909392576546 0 0 0
400 1 14.835593125879758 5.397543697818069 14.63656111368143 0 0 0
10 1 16.27949357604418 5.3779274420643945 14.390220307863558 -1 0 0
46 1 1.5107499356951597 9.177756195989414 14.39390316867118 0 0 0
44 1 16.862835273944604 9.128119159669854 14.413043370939187 -1 0 0
48 1 2.218045371039877 7.781439598839263 14.559784488287475 0 0 0
170 1 3.7294185375777906 7.877347097234717 14.216137269716917 0 0 0
172 1 4.273415881516308 9.039743787094665 14.652585239213472 0 0 0
174 1 5.74744523840733 9.149112184901757 15.239690177717161 0 0 0
176 1 6.431593126538858 7.9683793116620505 14.620461399082444 0 0 0
298 1 7.7392735811298765 7.928186145427727 15.089098759398743 0 0 0
300 1 8.61833723281029 9.055565122283046 14.808645710522125 0 0 0
302 1 9.948011215007552 9.16035943437749 14.814272792972272 0 0 0
304 1 10.657749114232134 8.01502827631705 14.781043016630514 0 0 0
426 1 11.976100479542618 8.045798728814233 14.661769277255999 0 0 0
428 1 12.708930808898211 9.122963659791903 14.636429051289529 0 0 0
430 1 14.108606094842687 9.103455437076256 14.42131575820832 0 0 0
432 1 14.771116352156112 7.916144879647305 14.30050037722308 0 0 0
42 1 16.238068784593793 7.9586869663138735 14.373500726050207 -1 0 0
499 1 0.7574383767239339 0.6610387345961874 16.519186239758938 1 1 0
17 1 1.4057199497595836 1.7954824802712368 16.53092976613368 0 0 0
23 1 2.7908400229917336 1.9077488358982901 16.551851804237096 0 0 0
117 1 3.563405400944034 0.6975081087802276 16.81750570437221 0 1 0
115 1 5.006258441926332 0.5765227581346957 17.066567058419476 0 1 0
145 1 5.5054501903884905 1.8331894478055557 16.51867923018592 0 0 0
151 1 6.917566502796175 1.8017369794710256 16.707976362067086 0 0 0
245 1 7.562486920343571 0.5519996660094653 17.026615723528774 0 1 0
273 1 9.741323934255014 1.818329674152371 16.643183587014747 0 0 0
243 1 8.964733467195899 0.5889285422122549 16.72286272398727 0 1 0
373 1 11.794863754704538 0.445481976374826 16.587990135327686 0 1 0
279 1 11.061787670686016 1.6333665875141954 17.010530233458304 0 0 0
401 1 14.039143974733266 1.8770170730998477 16.71607254942873 0 0 0
371 1 13.26198105468838 0.5339589637812989 17.15058764354864 0 1 0
407 1 15.434855125570135 1.8610119619228536 16.297714711102874 0 0 0
501 1 16.13732808083472 0.6731606902558032 16.493712114784966 0 1 0
403 1 0.6914964920573045 3.05732496319209 16.295361749216895 1 0 0
49 1 1.4183446480248558 4.3116403587312435 16.41150842775407 0 0 0
55 1 2.8109256802914824 4.285332301440109 16.29506389385554 0 0 0
21 1 3.3623494327348658 3.0305454152652582 16.32271482290515 0 0 0
19 1 4.836444247246783 3.0598961229903683 16.287396515095054 0 0 0
177 1 5.47356707903262 4.163822648832762 16.462741707641815 0 0 0
149 1 7.742776128684238 3.1518205302776345 16.47808311183534 0 0 0
183 1 6.8686727826305845 4.188922679402061 16.839248239295713 0 0 0
305 1 9.700615717628628 4.072025883864885 16.86264150973077 0 0 0
147 1 9.020884214368493 3.014756098864381 17.057381926549994 0 0 0
311 1 11.171954776573976 4.055025185959273 16.49376305030065 0 0 0
277 1 11.842605147654682 2.8217507912427937 16.803401799860325 0 0 0
275 1 13.343928374468623 3.0184251530980513 16.621008204668403 0 0 0
433 1 13.988176720412728 4.251538070979948 16.388534684426453 0 0 0
405 1 16.042464966241823 3.140016206616619 16.253880377200517 0 0 0
439 1 15.391081752351484 4.139103021767003 17.0165597390573 0 0 0
435 1 0.7802296876474738 5.560604441772064 16.214445599335644 1 0 0
81 1 1.4523115517602985 6.725582700088436 16.59390584375737 0 0 0
53 1 3.581735372360693 5.481229097359684 16.650218254213982 0 0 0
87 1 2.849719396839759 6.742022927906305 16.321013526823403 0 0 0
51 1 4.777852616651761 5.355359867243129 16.336428715173408 0 0 0
209 1 5.62973529820086 6.58650158938749 16.46801324588072 0 0 0
181 1 7.585543414396146 5.319068562446017 16.40259426954637 0 0 0
215 1 6.927735312296864 6.386622656183807 16.91628740676169 0 0 0
337 1 9.786689845470192 6.5799439361614915 16.68973723955481 0 0 0
179 1 8.995339617222056 5.30777725117126 16.466641637315007 0 0 0
309 1 11.981234847852999 5.4502245771389015 16.39342856756376 0 0 0
343 1 11.11861377777113 6.560134285504661 17.22421107627767 0 0 0
465 1 14.00877716026248 6.7399341107531745 16.328459750738247 0 0 0
307 1 13.303106021698952 5.485135738527932 16.799950266675552 0 0 0
471 1 15.452731833087498 6.6476174739733995 16.452981528780292 0 0 0
437 1 16.040228861485144 5.318930652107737 16.613189556210145 0 0 0
113 1 1.4706590660034216 9.096195219327512 16.5093906589775 0 0 0
467 1 0.8251872192496859 7.971537608017798 16.185674726141652 1 0 0
119 1 2.8710956014077182 9.089066651316113 16.494563664254724 0 0 0
85 1 3.6318533719872947 7.879461801120194 16.629198330094688 0 0 0
241 1 5.646111954553777 9.004751289559017 16.700698096925958 0 0 0
83 1 4.902989426275202 7.731387881977939 16.883982001726636 0 0 0
213 1 7.610410650487202 7.707907616737503 16.453079290368706 0 0 0
247 1 6.892995435489528 8.893993792121446 17.262659141497203 0 0 0
369 1 9.602470990143042 9.095397445292445 17.000707222737436 0 0 0
211 1 9.107562391710161 7.750494509064806 17.13456283087461 0 0 0
375 1 11.032989563414098 9.0426736382822 16.84692369940698 0 0 0
341 1 11.806717444750705 7.840287960204612 16.800526829404575 0 0 0
339 1 13.215360650966824 7.880607968660996 16.825767650318372 0 0 0
497 1 13.850620672988212 9.086404805318288 16.55749733262983 0 0 0
469 1 16.191332132037324 7.85643355594882 16.562365008597705 0 0 0
503 1 15.343482966565775 9.071513251299955 16.502065844693675 0 0 0
20 1 0.6683904554243059 0.29126120510991554 18.565701126556718 0 0 0
22 1 1.962831135840862 0.3595224894478258 18.498543046904814 0 0 0
56 1 2.6690919524919074 1.473746658072886 18.610100426051883 0 0 0
178 1 4.11482907111632 1.4597151885195865 18.937286841861912 0 0 0
148 1 4.8362807863787065 0.33964659175262385 18.54835875635377 0 0 0
150 1 6.0428479148105705 0.22922141059136636 19.101936867351903 0 0 0
184 1 6.798266972911888 1.3987814730226413 18.835316776088742 0 0 0
306 1 8.283461341665861 1.5172712208820456 18.79207738562029 0 0 0
276 1 8.962424095230222 0.2835702106169923 18.83827348814031 0 0 0
278 1 10.306410597676326 0.4384134272075154 18.79727801856385 0 0 0
312 1 10.988720261132837 1.5112310807989406 18.50016786927179 0 0 0
434 1 12.390957327904143 1.5044564306438586 19.117797117987017 0 0 0
404 1 13.247877000625488 0.28060817083436 18.630305024876357 0 0 0
406 1 14.630520893755568 0.12819788712999028 18.979302792535044 0 0 0
50 1 16.6725525339871 1.4679656709221258 18.48388219645724 -1 0 0
440 1 15.241603294660274 1.4058038917767104 18.60250464309597 0 0 0
52 1 0.5439428453729032 2.703339499165169 18.392325815375237 0 0 0
54 1 1.921837256224981 2.6758902958904294 18.37150330081724 0 0 0
88 1 2.680047891841985 3.966641077592376 18.507245584168324 0 0 0
210 1 4.098129354997633 4.034909059834804 18.944128652610388 0 0 0
180 1 4.808985914127524 2.6098358309368854 18.652368421839178 0 0 0
182 1 6.145544050878744 2.5974869082516445 18.62321083546304 0 0 0
216 1 6.809367697487838 3.824229789165172 18.2616745863089 0 0 0
338 1 8.138362135359987 3.961217341463865 18.921178848161112 0 0 0
308 1 8.9056769552278 2.681476649653416 18.418115745938543 0 0 0
310 1 10.314446949265946 2.7854417500091886 19.130525957646533 0 0 0
466 1 12.377722156460115 3.8789761156747096 18.702331531776224 0 0 0
344 1 11.044001936210414 3.9907818226472496 18.648964502463738 0 0 0
436 1 13.064795187842641 2.6874915132110533 18.57036130339654 0 0 0
438 1 14.452627037208465 2.6271932963063724 18.75425487279908 0 0 0
82 1 16.674172728943596 3.9489768825273344 18.84029666916326 -1 0 0
472 1 15.270584956648994 3.951081504382665 18.510639891363283 0 0 0
86 1 1.9850420650283565 5.056082751773765 18.48599878149909 0 0 0
84 1 0.5672701957010453 5.14717422896022 18.37589403350234 0 0 0
120 1 2.7009337158550686 6.374910770075866 18.43867895140102 0 0 0
242 1 4.084258386811594 6.482820883694785 18.52749733669382 0 0 0
212 1 4.836346293144318 5.266793410420724 18.63444737812366 0 0 0
214 1 6.320305970327622 5.2263902750589795 18.87215601093542 0 0 0
248 1 7.026869228156847 6.444951729458662 18.476989670018348 0 0 0
370 1 8.28829607088041 6.33219636010187 18.937111813072953 0 0 0
340 1 8.855358216727295 5.158235719497099 18.544319782577954 0 0 0
342 1 10.370304085311894 5.272086789596277 18.775812188760593 0 0 0
376 1 11.013487530325607 6.4369925060572175 18.64091280400621 0 0 0
498 1 12.428982610889012 6.270695192901969 18.899343035640193 0 0 0
470 1 14.494983039980738 5.201533967185455 18.830188775708848 0 0 0
468 1 13.139438345972374 5.267330344748576 18.363884976053384 0 0 0
114 1 16.78110639127516 6.4004255829719225 18.332809194437772 -1 0 0
504 1 15.471228206622628 6.2357241838576645 18.520381310630757 0 0 0
116 1 0.6470696192236619 7.6141430814847215 18.361774132660244 0 0 0
118 1 2.0427546557894356 7.625891759848799 18.42228386785007 0 0 0
146 1 4.102459721867239 8.873799020663444 18.751785243971426 0 -1 0
24 1 2.671080706314514 8.78437177376717 18.567298183683555 0 -1 0
244 1 4.75901506350094 7.658475076519382 18.971560005362512 0 0 0
246 1 6.226842836031869 7.5711067654964985 18.998912522997465 0 0 0
152 1 6.88584284738319 8.772257415864797 18.63036605041722 0 -1 0
274 1 8.295770724582018 8.71839524238738 19.154141957653735 0 -1 0
372 1 9.080579193093058 7.604481903983135 18.69761563971685 0 0 0
374 1 10.451595048499778 7.65438162583227 19.170167657662773 0 0 0
280 1 11.14016997388497 8.935832958992393 18.91548346443354 0 -1 0
402 1 12.631038588550647 8.810917700440996 18.80911312263384 0 -1 0
500 1 13.189914552764739 7.434012202639929 18.842360342892135 0 0 0
502 1 14.604448193715191 7.49581146190389 18.445067594322747 0 0 0
18 1 16.81554014595003 8.806721750278324 18.42922361982304 -1 -1 0
408 1 15.35474409497717 8.725527857843709 18.602888938066634 0 -1 0
475 1 1.2573541784949533 1.326969148738734 20.39544620499685 1 0 0
121 1 1.904879206006288 2.5981493779913993 20.632980237123334 0 0 0
93 1 4.03874511466527 1.4251114163144785 20.424228144396757 0 0 0
95 1 3.203291051369265 0.14307449276057935 20.846608594136686 0 0 0
91 1 5.449315014108463 1.3598215631669994 21.004601656401057 0 0 0
249 1 6.143293155211448 2.5857234858021965 20.732598602919182 0 0 0
221 1 8.255526492026014 1.4337788831007297 20.89357187467155 0 0 0
255 1 7.528595163466867 2.609136824833337 20.522625181705365 0 0 0
219 1 9.78854009470646 1.3982918993398938 20.811165831382137 0 0 0
345 1 10.378160396280114 0.12249626364272954 21.08610654748912 0 0 0
349 1 12.371548548418488 1.5774848240568018 20.614323334993784 0 0 0
383 1 11.67408347603025 2.562984029091977 21.329178780709825 0 0 0
347 1 13.750115440862883 1.484970167551878 21.07388021884109 0 0 0
473 1 14.423802277125759 0.27546448137443064 20.496897918931943 0 0 0
477 1 16.651167753674564 1.3061607243350404 20.558786444308062 0 0 0
479 1 15.883278718653479 0.1873484699658033 20.819666186609616 0 0 0
507 1 1.171461286104811 3.746295272330064 20.62852918489791 1 0 0
25 1 1.7504532695355062 4.9027355748045425 20.674032312164563 0 -1 0
127 1 3.3021656677404283 2.6577327922211214 20.461855634126213 0 0 0
125 1 3.996756227731391 3.917700934656216 20.350642127795346 0 0 0
31 1 3.211790383876231 4.94768511602485 21.002767234095998 0 -1 0
123 1 5.373565126121722 3.7434989988482346 20.864524164195263 0 0 0
253 1 8.142529316807993 3.7654045178534394 20.35234895780043 0 0 0
159 1 7.541272103128527 5.023144900296544 20.844747856092866 0 -1 0
377 1 10.438127457003086 2.5167054446545296 20.568308761652613 0 0 0
251 1 9.637766046484819 3.84125819111261 21.067328986906382 0 0 0
281 1 10.304079975138704 5.013426489676079 20.864248929028747 0 -1 0
381 1 12.407454429178506 3.9475066569814614 20.79360707543534 0 0 0
287 1 11.6117076338548 5.019977991982273 20.586509019582664 0 -1 0
505 1 14.493589593835823 2.676793431995673 20.86389805096033 0 0 0
379 1 13.90283628783601 3.8504266892509147 20.647506286968774 0 0 0
511 1 15.943259709034393 2.6079113914837846 20.557560612657156 0 0 0
509 1 16.575922357574875 3.8641419402565305 20.253178657667785 0 0 0
411 1 1.0857252408296425 6.111886064467955 20.676786250946044 1 -1 0
29 1 3.950129928211283 6.213575659272318 20.726595985803645 0 -1 0
153 1 6.186626534329453 4.91968209721807 20.456623857343658 0 -1 0
27 1 5.459149478973287 6.176254624545614 21.094031390866093 0 -1 0
157 1 8.290534765063883 6.253771399684353 20.395769460502734 0 -1 0
191 1 7.6446171950949795 7.3627481957797425 20.931996781366536 0 -1 0
155 1 9.652961370768152 6.11664629595946 20.59266811560166 0 -1 0
285 1 12.3640692269745 6.255338528548409 20.491969872324457 0 -1 0
319 1 11.755588263105443 7.446819448456774 21.03330195529557 0 -1 0
409 1 14.483092370821401 5.034019728859998 20.27749525538613 0 -1 0
283 1 13.801259373323926 6.185649214003856 20.9430845455796 0 -1 0
415 1 15.753400426837521 4.911029969460873 20.69367161204655 0 -1 0
413 1 16.475861320881272 6.074347235954605 20.517367071832048 0 -1 0
57 1 1.8157016101334122 7.417504087103088 20.548917929498042 0 -1 0
89 1 1.804976791954454 0.18746352415714768 20.691383993393806 0 0 0
443 1 1.1523031583398222 8.580056185243304 20.352323442632 1 -1 0
63 1 3.2211496296488984 7.343243308307962 20.72275439373886 0 -1 0
61 1 3.946344307117638 8.569525915780211 21.0043040135928 0 -1 0
217 1 6.0956052728410075 0.21893553012653022 20.52317384825836 0 0 0
185 1 6.0984015363223225 7.380022115902559 21.081122501126053 0 -1 0
59 1 5.377943868406221 8.597021184728842 20.860711667079645 0 -1 0
223 1 7.5315405327764235 0.18344909741852078 21.17214157975358 0 0 0
189 1 8.187913086600023 8.639803514297444 20.763362627371237 0 -1 0
313 1 10.433626469182613 7.4604115366060375 20.664974506575994 0 -1 0
187 1 9.59250377321665 8.51545883823588 21.287609253860936 0 -1 0
351 1 11.76777213315559 0.18871115734588784 20.860184532261815 0 0 0
317 1 12.353955959513012 8.672839516809006 20.900973990142376 0 -1 0
441 1 14.536101792596483 7.357247901047069 20.625883809238157 0 -1 0
315 1 13.776525396029909 8.712501704130691 20.72384315546922 0 -1 0
447 1 15.944973547919817 7.359110449009327 20.23186814104677 0 -1 0
445 1 16.62913929750612 8.483126899256469 20.559839230350562 0 -1 0
60 1 1.2245993425472768 1.1869998101599297 22.592398931097634 0 0 0
90 1 0.5248120346907506 2.3397752919740316 22.672239994887104 0 0 0
62 1 2.6240899741630748 1.1428933250776703 22.54566306817342 0 0 0
96 1 3.2167126593111233 2.3812541538918555 22.535967458851133 0 0 0
188 1 5.462117348526667 1.163513763474278 22.50878869673454 0 0 0
218 1 4.773212165163628 2.3864644716167254 22.902082175157172 0 0 0
190 1 6.71640778796011 1.1904114661307779 23.06705696425214 0 0 0
224 1 7.34690291640865 2.5544354828894966 22.701084323233786 0 0 0
316 1 9.472447060860567 1.1497560073255422 23.01473518713987 0 0 0
346 1 8.759679321016906 2.51366694241738 22.723565068892448 0 0 0
318 1 10.976055020002121 1.1237195147651775 23.019677780861493 0 0 0
352 1 11.736171000839558 2.3429166386346183 22.681079215616837 0 0 0
474 1 13.154313602878114 2.259923040927595 23.139693752728043 0 0 0
444 1 13.816633165844037 1.148452940277993 22.583749131019154 0 0 0
446 1 15.138246989045829 1.0293587787411713 23.06512142226824 0 0 0
480 1 15.955593964487797 2.341206014728474 22.71009136756839 0 0 0
92 1 1.1097823442522232 3.562469478446252 22.70915928991516 0 0 0
122 1 0.3656737855527298 4.775783181033273 22.571721113514602 0 0 0
94 1 2.482048358191485 3.492918420522302 22.489065947223175 0 0 0
128 1 3.2539167515400123 4.755940175880193 22.494720179197373 0 0 0
220 1 5.370043882354458 3.5142264374518244 22.458021040321896 0 0 0
222 1 6.732313157260043 3.6620111662634716 23.12806662667112 0 0 0
256 1 7.598688683629122 4.797629809542678 22.695826994467602 0 0 0
348 1 9.668809320252134 3.6467772395773355 22.429296790470076 0 0 0
378 1 9.022385859860504 4.864366981284579 23.194700930014395 0 0 0
350 1 11.001280820441588 3.427901371918917 23.179445430076527 0 0 0
384 1 11.751814205962033 4.808180044427063 22.95946737618703 0 0 0
476 1 13.893256516835544 3.6022154699319056 22.836715269704996 0 0 0
506 1 13.134388570231142 4.712420941025248 22.69011998844794 0 0 0
478 1 15.283233011266804 3.7043243845107368 22.706563094985203 0 0 0
512 1 15.880791031860683 4.8513235177338085 22.133699678712826 0 0 0
124 1 1.1908647620294135 5.973068029750775 22.827479181279717 0 0 0
26 1 0.5063501037901865 7.174817760437026 22.448811158527043 0 -1 0
126 1 2.5411398830705645 5.866144711927695 23.115951523468233 0 0 0
32 1 3.2819573840157306 7.227095159136381 23.17198499078186 0 -1 0
250 1 4.727239429931562 4.6884823755185305 22.95867474977239 0 0 0
252 1 5.363772379229697 5.847518835716523 22.53681866462813 0 0 0
154 1 4.569200034532543 7.14690210027418 23.037005221829553 0 -1 0
254 1 6.639007157191941 5.983034638399447 22.990490557760822 0 0 0
160 1 7.265830669928791 7.220749237149026 23.062714306218805 0 -1 0
380 1 9.572560705496855 6.041086671925654 22.822944112350918 0 0 0
282 1 8.81608482861438 7.237499206896043 22.806445810877634 0 -1 0
382 1 11.018464371684123 6.064481281031718 22.69335004945941 0 0 0
288 1 11.699394522387605 7.24177585294271 22.552855976583558 0 -1 0
508 1 13.79378182541817 6.045409670179374 22.52243036992598 0 0 0
410 1 12.937713665825019 7.132221450926264 23.12544410821569 0 -1 0
510 1 15.266550045905905 5.921762567768256 22.89266766519208 0 0 0
416 1 15.921081691613097 7.270782442712536 22.7675053103535 0 -1 0
58 1 0.36092679837689645 9.48407776869647 22.84334118377229 0 -1 0
28 1 1.247846780271174 8.35694221291525 22.745217559964527 0 -1 0
64 1 3.336953074914379 9.646689018571905 22.94012487133878 0 -1 0
30 1 2.6269233088594395 8.454639261042075 22.790062596518244 0 -1 0
186 1 4.647154526800937 9.538249337563045 22.80006660832465 0 -1 0
156 1 5.240336763782238 8.340657476484019 23.136784266979298 0 -1 0
192 1 7.2951152618101185 9.627602720278293 22.589575669311508 0 -1 0
158 1 6.5872620428445785 8.309023461422122 22.90369685439 0 -1 0
314 1 8.783576199116409 9.566634254278924 23.172654977333735 0 -1 0
284 1 9.568855361575945 8.45949550225098 22.690031690670445 0 -1 0
320 1 11.563391166070412 9.597064787072554 23.119606148912176 0 -1 0
286 1 10.919692008166692 8.336995011737304 22.9718795544154 0 -1 0
442 1 13.092573646872234 9.607350250022755 22.77594230641087 0 -1 0
412 1 13.776183068992296 8.2979899147225 22.84883189087605 0 -1 0
448 1 15.823830591851868 9.526243684304443 22.327132163740245 0 -1 0
414 1 15.22765576272031 8.3507140087941 22.414700981124103 0 -1 0

Velocities

71 -9.087212738907194 2.8665123194779283 12.903151822395971
65 5.297244459103835 15.702722614824543 -11.265818028172959
37 -30.791390334309718 8.650036025615732 27.219129337088898
35 7.652837367923821 4.341751295359092 -1.484199383217024
193 -29.739850019323168 -21.619000890345742 -12.486229295054077
199 11.601882723571139 11.651418564454964 12.739008469205492
165 8.900768754625998 13.945500101041189 3.833349335214174
163 46.26290418751561 9.66948698774136 -7.652076105211025
321 24.92820100153005 -11.767458332141697 -1.211170728344245
327 -1.5509125931721517 13.400360245359249 -12.818639572558515
293 15.78158491368747 -17.52733258208686 20.3433102734598
291 -37.37881148592705 -11.012512000967874 -13.02816550243784
449 -30.29883515141408 -28.310151837325265 -20.377945521431503
455 16.603836181572632 1.739185857569379 -12.613167250209948
421 -7.247267633820604 -9.937482611645754 32.213831281294134
419 -6.834480050752545 11.38142528354266 -29.681502470648656
103 10.064650930881676 5.011035172915247 -20.313500544086477
97 -2.94149965842644 6.9194490797527255 -0.15023319302697682
69 18.69307391721719 -25.83204543651957 -13.505090187564955
67 -26.74162250242477 -23.520412361271728 -1.7080621532318714
225 -10.34834397648033 -21.276644750618892 -8.425965810437697
231 -7.9080317747165765 20.404220962891912 -20.111985820074587
197 17.75665196566192 1.3406282809025478 18.72406993921081
195 -18.185565795944274 -4.019503773404538 16.113017899968405
353 7.665224561594645 -39.34125015280473 5.837024379858513
359 4.791757331007704 -16.310885589667002 -22.745482309374022
325 -8.12512537313664 38.45268315965064 17.63624594095893
323 16.96815094847961 17.636407988484596 -24.260490110684763
481 -18.606106662251726 23.347919481536454 11.626971310770315
487 -21.536483935858403 4.581704360568781 38.50585242745521
453 -3.7175159478545106 2.4696701516690007 10.16479747025679
451 -1.486438546097638 55.87794329350542 26.845693513649213
7 2.8932205511691844 1.0904193976449503 10.676492666407842
1 12.010948300643797 8.011399872769424 4.62207710739312
101 -4.026052883612883 -11.43485469924496 3.947589644421476
99 3.924974893295886 -7.272961927098451 8.92781077018485
129 5.27450385757005 -2.183058667658372 2.910072094998817
135 -17.382110756509412 -14.70965050803499 -6.0890577809836275
229 17.400226220323226 -12.858178905387355 12.373290160056321
227 5.599217111538447 10.832902316672378 22.32464339551136
257 -2.3063808181015673 8.65875812769804 6.155612968586013
263 -12.624269729764894 9.596666136888935 3.7832663026537574
357 6.594339865395249 -16.27121412640041 1.5076551377440697
355 -5.172303573085617 8.415624184305477 -3.7247328354248075
385 -7.149354694866031 -11.20689097489714 4.823192968904086
391 8.54844649042722 11.371748895032612 -0.4326448579401638
485 -22.52722319280208 16.432749421248744 0.10884649464669877
483 -2.238966089292922 5.677593535679397 5.985230612625791
39 -3.9555417278302447 -8.201573164165952 -10.354394430705478
33 -20.881291601519273 -15.61611972035185 11.00958169319267
5 19.434105282148835 32.369085922683524 -24.987242422961586
3 33.71416945557826 17.35913375873369 32.55516428403937
161 6.623362260723858 16.08579788006965 -20.917992487456694
167 -41.27417287067871 -21.254443432428022 12.140150515920492
133 18.553732770990973 -8.194966029554683 9.20040129604069
131 4.026207167992434 14.285822587802054 -5.991901210675059
289 8.567555758746542 16.526961581125 -4.939589242869271
295 10.492421076164074 27.402549891764338 -17.22435571615144
261 -1.0964229747727927 18.823027188262717 -21.185267570607714
259 0.6660344497741177 -4.398709385980024 13.225065663917286
417 -0.3576368406115587 -1.1589177036899527 3.2267558790661894
423 -24.31353867665656 22.843319565737467 9.937546116514893
389 -21.314114254243627 -19.54810371152518 -20.922816191537972
387 -14.262498732141914 15.360051764631413 14.055061149965116
100 -8.459395164670205 26.480786488399417 2.643285733938397
2 11.965367710259036 -6.201942194556627 -15.863427712781181
102 6.6364866620568925 7.163511388746965 -14.505482881469487
8 -11.150552092278895 0.35187052703528054 13.557879349843892
130 12.863433754872773 8.783361405357358 2.250077830138708
228 -13.380086412118905 5.337399042680001 -14.971368386078181
230 -32.45100926392582 -15.251579161719352 14.661283417051905
136 13.843370018036993 12.250203716951996 4.103553498459365
258 8.79484469593284 9.040929199940589 -6.455469526607075
356 12.180096526053946 12.823236941290203 39.44681077067655
358 20.354905799564424 -5.169156326823861 -24.573209991988396
264 17.009925581279564 2.041177287004563 -12.136439948559353
386 -0.7421558338013368 -21.46374643944529 -13.032150634374341
484 18.35152359696419 22.038342254262265 1.423199389492658
486 16.93021520004992 15.069399987285255 -0.9058385730917778
392 4.80502454715903 -14.653363847438342 2.2417265654774674
4 8.256475486585225 3.470836068931842 14.851741915390136
34 32.24136581782527 14.176887540412558 0.07290041330155068
6 15.229245243011121 34.31020586755593 -5.942599281532465
40 7.340720431701756 13.592223605992137 -17.78616884253257
162 8.606341538044518 -28.931437382916904 3.7414718426016376
132 14.38968421429744 4.14121153770982 10.506701737357634
134 -15.582332786134362 -12.465790772993058 -1.9457103263385207
168 -0.9385886298095864 0.20520904301497186 -15.092330082876176
290 21.8351373123416 4.275035352776917 8.798287679541128
260 -13.530635814231553 -15.95488255737666 18.050231126534417
262 -27.573878384678807 3.5391278572577938 -17.33319660220128
296 -24.601197879761482 17.374203875904428 8.497264079760457
418 17.67408637225134 -6.945709610482942 -2.5095150059910662
388 -3.349684233423485 15.822039285545427 -19.579321779166925
390 19.00599772622647 1.4386558693409386 28.378411937550233
424 24.299020326313457 -2.864196020204272 -9.978296980907452
36 2.1287859622877456 -8.640405305511548 -11.995976417393672
66 9.926692431091833 -11.256109419608222 -16.00666464905488
38 -46.08100569485059 14.689479549199461 20.371259918015372
72 15.458320682090907 18.830791272790307 -6.386317185314892
194 7.294388593280685 0.9400315678834019 -11.613929999356094
164 10.87863480587746 -14.74025793621326 8.833633995442865
166 -25.727178592693544 -26.69939618078605 18.430242605231978
200 -4.753072256849412 -23.837524995702573 17.68535719691315
322 -9.286330913118775 13.044546844932364 8.405953510209892
292 5.623831397488857 -11.330950497262169 19.280714660538084
294 4.13242315885203 -28.7468336396548 -13.32887442930086
328 20.509347192628223 -5.006165460449058 16.095559991905375
450 14.305573611071475 10.422007434708894 -21.783856682376648
420 -17.73010534006466 -11.981841488044793 -9.758024681756574
422 -11.07157651033159 -8.279150127178733 1.9642566369373464
456 1.3090824905828073 24.724844908531992 18.555398553505462
68 13.230865986428588 19.549090035750538 -27.70695315301041
98 28.048242509107595 46.227054058820144 -19.178082334335365
70 -27.824279320117636 3.5982883990241064 11.146395172799497
104 -6.207692665385199 4.519768973508721 7.0500540726675105
226 -8.86719598077437 -6.277000957402164 35.57230161858049
196 -6.751887808055055 -10.028622440894361 7.518819508101461
198 -5.297487383319121 -5.442800280495099 1.945172547894948
232 -7.634529646623263 2.6434054265557436 -1.6944990407689262
354 1.6749749030525207 5.594080483643463 6.339089352813117
324 -9.078146247167458 -14.465877187450019 24.278692221324025
326 -12.051472271402213 4.648831639369985 -32.09027951717336
360 2.227449729168226 -11.778309778201876 -4.761590209060494
482 18.93547552550629 25.140467549520775 -24.507369674803233
452 8.363085450141844 -9.376919281980193 -13.956839899188413
454 7.935708835020371 -33.10369615307075 7.902861289911798
488 16.231900830413895 -11.308215124036034 11.55769234565724
137 -11.57604706845425 12.701094788509748 -20.220063889035853
107 -17.504880195343134 13.955769843048406 -20.199465651376567
143 19.613036414992326 4.343258923608446 9.08821118740517
237 -11.513217952603217 43.63605509842419 25.76710432188295
265 -1.2194416206152696 19.01894705719808 19.69965453386987
235 -4.731600766130272 -7.692092148677639 -10.586462362357025
271 -5.282985387354121 -20.892517806140745 28.08358088135426
365 26.72706317875731 3.7897114502195905 -8.371058471751917
393 0.7412723670744121 -13.497497184402915 12.902616440532675
363 -8.07804567788851 13.256457278127147 -17.6093576576517
399 4.383077320799734 -1.9066834636795544 -10.084025269193539
493 -3.627996854812753 27.745546551179867 3.28501216748759
9 -6.544017928066178 4.698013965897617 -16.89743885231267
491 27.418179317508855 22.609514410252974 -4.79429642112913
15 33.87858552830345 24.28794448883279 2.8978508643411827
109 -4.968305302176799 1.4350591472734997 18.8926156131557
11 4.248602585983691 13.724830149325433 -9.331676884991117
169 1.3374607983060347 -13.699207632752795 32.89262985673606
175 25.79700547837167 -19.200139856852108 -42.635069266154844
141 -6.846400555972013 13.526081489068694 4.066494641945114
139 -4.57788748987387 11.541041428715463 -23.106932503405964
297 -27.470609466317566 18.401934035024187 -23.835295420709112
269 -3.3680097267870712 20.27543276176646 4.884728501829464
303 -5.32674286923116 9.083912406949217 -11.834417445078826
267 -3.5226153346713165 -34.826502635616585 -13.57562576329293
425 -27.73814865383094 6.8848410831899765 7.870902830932123
397 -5.157715336960293 -21.9497469024832 8.785912506255428
431 16.43148592678917 -11.734084714884428 28.37740850229164
395 24.8322584295204 24.255012034777014 -8.956719414090108
41 -50.93614645232839 -11.276552260741532 -7.495653279627788
13 -27.629629241217202 -12.45835007784584 -13.007640954457841
47 6.951394076659881 -25.599721836930193 14.610982488599136
43 -4.2809727070789405 4.105453983564927 -21.704558085930888
201 -16.44485425634314 18.57426063250677 -32.400727055036974
207 -2.158946126583033 -0.3807610912938734 9.264023748836548
173 37.07382018216484 -29.56954654183829 -32.552446329870584
171 0.8942151347796283 21.810245547594025 18.04335191344299
329 -3.5636249070485535 3.4558867190955938 -24.437245803142023
301 -10.254591794272853 10.531406849973118 26.055572141889833
335 -3.5405970176048087 -3.3304028112656723 15.358068803203281
299 -5.173094520953645 4.781624583756782 9.568595663826233
457 -23.065704135103722 -25.366650687869768 -18.063339744315005
429 -13.758940566602963 -11.972885291410485 -4.911845289726749
463 18.06068339689745 -30.44445274973013 -2.39039687562275
427 5.381121345770247 -8.37278775265558 20.20276585407784
73 19.865434842701124 3.719482440138782 30.294535890344164
45 29.763320590274265 1.1301916310857636 2.7781978396260865
79 15.447524375151977 -26.679712745115577 4.588083821850856
75 -22.384354642766553 -17.35022511267886 15.385360320253081
233 7.230324852721689 8.102819780299859 -3.491228323963973
205 7.0295199143840446 -24.60289747949804 14.620759068781316
239 3.1902538741837163 -14.73645242085049 11.098185112840358
203 22.112178667052913 4.253357679721672 7.36871831113383
361 -11.358687031805301 10.049227558020798 -9.410162079210895
333 -3.997615392919678 -11.667667248097649 15.446371091596717
367 -25.564365615995026 -1.7465370895895007 -4.140854303710203
331 2.177049920496207 7.689443710427831 21.52720767404261
489 8.37871428595044 -0.23192514978225487 -2.911106758019959
461 8.627718394616936 1.6410129542638916 -11.64753998595745
495 -21.929899342366365 -35.51288865823657 -5.2928363117917785
459 -17.750370362317067 0.5044247086851186 -7.65219813539472
105 -5.013622570796937 6.5182080874207715 -18.136023446042664
77 -27.59925735496278 -25.391237648926417 -1.3712539795977385
111 1.5874553838727712 -42.112029076280464 -16.227677934629053
78 -26.928260571320475 -15.302608815883943 -24.835307952699722
80 17.07524932959366 27.23005398963103 2.148210956408928
202 -8.320399556641599 6.555349942090784 -5.9997694099892405
204 1.342930160788926 -0.5477926278545504 10.25406609972487
206 14.091353835108135 28.747617308445058 29.575945594338577
208 17.898251668412765 -3.3392915687543834 18.767445995950485
330 -31.16146061872143 -16.09515093847708 6.8189096609454
332 -15.290546711980005 -35.754750792374 -1.9930593050237007
334 25.4852351426577 -1.7572985588775543 8.425720215534124
336 -2.488160340610953 -0.9910804076110729 18.977599451392155
458 -26.930041559619198 2.1064969493936223 -9.631625806671853
460 6.9846264072803175 15.580016114590865 -10.415018235335305
462 3.313916030836158 -37.55996457938538 2.936822599659322
464 6.558122880701233 -2.075789107656723 15.824953490064386
76 3.6714401179675433 26.102183944447802 -7.387669732870668
74 21.392309052002965 0.8091954296418985 -13.253366874393311
110 23.810224529947988 32.89922535409439 -8.531746026147719
108 12.244806540486785 -18.835076960451076 9.89123752142758
112 -16.161388532644285 -38.677604745252474 -0.5704201955931543
234 -0.10505600434231809 -7.191931138783601 -2.2740407725764444
236 6.0482529744107145 5.372738343793617 -50.182748944080075
238 -3.819270086198686 -0.00800505298505159 18.599481189834634
240 12.99533677848634 -3.4039952870123615 -9.332561153074057
362 0.7028550133036812 3.9728697264591757 -6.054320698083815
364 1.7846308428742055 0.6571158503588326 -14.134612115336203
366 -22.249752030158763 -6.945502439138991 13.004955741929445
368 21.292805247212435 3.0806256700862233 11.742487489982336
490 -9.857166251075094 1.2422932584008572 3.9526041639773832
492 -0.5620531808842618 9.91000390960746 23.633708034745204
494 -1.1825142659641552 -2.5000130500136075 1.77103538240843
496 -19.570570634887325 16.49103369750514 -30.10429368978669
106 -8.707953513169299 -4.740640079198205 -4.571834454398062
14 3.4710863375887198 -16.361834016187018 5.837215813626335
12 -19.678536904399508 6.331773237672451 9.921161694399299
16 38.07080011387958 -9.062516652780124 5.244327706850508
138 14.95028266020824 -24.85879476210615 1.454601373942705
140 -2.5126965267269297 4.869014706497858 1.6658034938462343
142 -15.800386210826375 -14.63598509683461 2.7753956580942254
144 -32.25664478121195 -2.7608465478563096 -5.96811256781389
266 -1.824753812497211 16.479720921718155 -17.48549053830061
268 -7.04315780571425 0.2995593194605115 4.104387754029619
270 16.40517659608839 -18.335450906122006 -12.359387419507689
272 -28.73090083100815 -22.394831165020545 -16.718109463975924
394 -0.6139103560369008 -15.786062182804308 -0.4447238454724569
396 -17.985144031071755 0.8737308943846789 11.776243490960024
398 -3.2449999444396367 -31.687151416733446 10.376753054623226
400 24.53112624328545 10.5111557405032 -11.9897285577098
10 -21.09008597567071 32.60922152174814 3.3140465757803104
46 -11.674975507623014 -18.04590021448036 18.678924522736935
44 0.010538321350150615 15.79905937747506 -0.8395111124047563
48 -5.938214274726499 -17.322416214736556 10.647184296612835
170 2.8570409869610995 -15.267520490739427 -0.22003871218051405
172 5.978623681690494 22.112198421812927 -14.881946699381862
174 27.468915145198412 -13.378419429572881 6.00736350113132
176 6.7909077101768975 -26.6877765065167 -10.347319544601014
298 -1.4097592543894666 -5.330630298174956 -3.7361807861295824
300 5.095836985863343 -1.0890972337194453 3.5532119128308794
302 9.644235604557485 57.71436271327067 2.8438662106513357
304 -34.43430977010111 -3.2168997948040685 -9.207653749290232
426 26.22074661616256 -20.398668340478284 8.251117736940259
428 24.463807742761652 11.118135830775149 -1.4412595647014128
430 -16.839006686650777 19.841904663662515 21.160262858971205
432 10.985117189196501 11.031575023176757 9.677087666498855
42 -30.016069226353483 22.984995401672673 -18.71726435990014
499 -16.248017679179462 -33.50041498491775 22.34119463830761
17 11.919105206214754 -26.50665640901287 0.21889330993774958
23 20.723826567535887 7.978583035495783 -12.597919169009742
117 1.767239737320866 0.13735386470054647 2.15416574417807
115 31.451538102483234 16.06702880481159 -3.5374051958785344
145 -0.8730368805507589 -6.01847219961376 -2.6559883122546237
151 -11.23693889823599 -16.187568258284397 33.39909862330334
245 -21.37872331091567 15.38984380166473 6.649104768222454
273 -6.143302901183108 -30.201590288655638 18.980443790581877
243 15.598459002305058 2.098834646129593 2.308166608636977
373 7.349028056919956 13.357715309215093 -5.09989206562762
279 -1.8765025617564892 -18.938881302022203 13.231683987964583
401 3.674416402671552 12.019083756808833 -2.9831443982789443
371 -5.4391458766444645 -18.767982660201703 23.592428297372138
407 8.819581889315083 19.387649650839275 -3.077258500569005
501 -5.896019244126542 14.042016306097132 6.510800184499603
403 19.37660116995103 9.965362971964328 -24.81403575018329
49 -11.299087810923005 6.906906344621534 2.0478577441304773
55 22.62790588081493 1.1612702774695913 -1.861691214474011
21 4.379823577039365 -7.679116698942321 7.984789369651646
19 -25.148490376347407 7.779756801088109 21.11263562558153
177 20.83105884600766 -1.7186322352895675 6.833056036679502
149 -6.363465300613308 4.421848474564464 -13.08053249480981
183 5.379851614879713 -0.2474573669076182 5.305931477493839
305 -15.33453358463786 -10.386129945906678 -15.745900707715665
147 13.254849334106492 27.097792921368338 -15.028479323649675
311 10.561797853365622 -2.322513845777267 -3.3016212420008264
277 18.94718585716711 -13.455917746604117 -24.929185387867516
275 -18.319182702884586 5.840845169697602 16.854400538941523
433 -9.919094376912698 1.3967659323157884 -17.744627866153095
405 24.728852858087304 -9.028541990505056 14.798929206729516
439 14.678718422790105 -9.639411952213534 -6.765350709807124
435 -11.933604788533708 12.329886289735667 -33.51904690900539
81 -16.66040792279601 11.651741097557203 7.308750496123523
53 -18.768484422186102 -13.312822888855685 -15.0277832428994
87 -7.044472793385132 -19.170993787749694 2.5672228951581397
51 2.257551980138142 11.09248835825487 -11.76269855259401
209 -1.193590039512283 -4.243399763497425 -5.164795348633728
181 5.545005530016909 -22.17031228033219 18.86466050863657
215 -2.244676917830232 16.711519108001465 17.42212959004069
337 -21.479837902377874 -3.6511806418187627 31.052651572277313
179 -18.88053629789794 6.373148702687588 -14.311640738742808
309 3.73246887281682 -7.379366672072406 -12.26075170366165
343 6.782837306182051 2.6421889911677288 3.091293541824362
465 14.790638977713478 -11.342517880993338 -13.17314506675023
307 -9.476549344575693 -19.099555249495072 -29.515292913424346
471 1.7020993737381322 -1.8303241152650986 20.83687334852539
437 4.875738041868205 -7.402181980386229 27.936797837798437
113 -6.751411052008983 22.082922509085698 -6.347030331567398
467 2.0696102029867993 -9.901608332537414 -1.8965009397638202
119 4.099275779342415 -5.349851444276203 -13.977233107590939
85 -18.260338760265807 -9.006618484995956 -15.043171063518576
241 31.077973105526013 -12.954231187699287 -2.156721204811226
83 -13.431385702913913 1.5014059600203158 -28.026442354064223
213 21.921230302727675 8.693307857686467 -5.431313467935794
247 16.76979756088502 22.742592743474727 -2.668190919247275
369 4.946224984101441 -9.193649761373592 -5.4976418285105
211 26.082650127656233 18.68462331649642 18.300257438865735
375 5.960465682993769 3.0384155016890713 -11.32360297175835
341 10.955322024688183 -13.484674251608052 2.728240911589219
339 29.24118371611759 2.1903289363329526 16.392570976424008
497 27.276668942377636 5.213710438562689 1.934830160763605
469 -6.257916169482766 -14.034688245626361 12.665024810179686
503 -0.6350826752094813 -9.316983990405866 22.430667888952524
20 2.3242666381908763 -0.15358796200483746 27.457586157733207
22 -35.89355003773682 12.694025571644435 10.382721221224342
56 6.295803945006884 12.64778897274729 12.010869658196127
178 -1.144771940806456 7.385780647254741 2.797885528709285
148 -7.207417454072139 1.3917154240251577 0.630853256318788
150 9.155248805239612 7.8424060411209 -20.792093239020602
184 -15.13806972036715 9.588315543105118 6.144740296188581
306 -9.50386608381398 -2.3688823293922305 -8.899255270221785
276 15.215900580937012 -52.94733625707395 -31.480622135273514
278 -7.411459136143916 9.933241391695141 -7.350092610859917
312 -7.3644705568721935 -10.145119545612799 -8.882376099821114
434 7.113201482103934 7.669214469803087 -13.488660122094753
404 -32.80648040469113 -4.265103173794628 6.297058427775428
406 -3.968400424355992 9.959552834499382 37.04460513648043
50 -4.274220106101022 6.31407686972051 -14.746615094937827
440 3.104889847586823 42.63981293817756 26.550345045746305
52 8.279686899858092 -3.8415602747798308 -16.489846015113677
54 -4.9487716900404966 -8.783488619916785 -5.602548206368907
88 3.2204091206422683 19.48493922006828 12.318322000662487
210 -21.35235064601788 17.63473126212849 -21.340971101338752
180 -16.283667306808177 -26.40235069886235 37.92950513884694
182 13.581419713140129 23.50364081490579 30.618533678110314
216 4.972499629684392 -11.82956688312029 31.76991074721304
338 -20.865498776026538 -11.972779237115509 31.803202714205046
308 4.097463091964739 25.668138388279868 -5.113218350167637
310 -6.011156679310399 -18.27918343582693 10.526265460440618
466 0.7165964182804386 16.04565847041064 11.685699249473778
344 -5.297150433047474 -13.637176694228115 -29.569753375380504
436 1.412295031005672 -9.761723631100205 -8.957287339835663
438 -18.557527626932544 23.749405623969853 -6.375209242385054
82 13.00782822535719 18.27265569312 6.6354028344476
472 -13.141652552904306 0.7141286281939625 -13.884649425081156
86 3.836301190997283 4.303580329956652 -22.1533964927266
84 -4.27999889168485 15.637504457332684 2.500092498579312
120 10.472984888858841 -13.27798969464672 -4.79447563589815
242 -9.56253924946377 -8.812777037930596 -1.1762456256192717
212 7.728810551733557 6.769436132644963 -10.016767917125032
214 9.136760765994728 3.064051144488641 -0.02891515621272368
248 13.166646304504571 -4.296549334107755 -0.9682129822693378
370 8.021808518231042 -6.17119697507982 -21.89171779474098
340 4.69452541797244 9.479023586478679 4.509185284428194
342 -4.213740832747946 -1.6144435333095726 13.946256082414216
376 16.179115358679756 -15.38281032742828 3.050634268916877
498 21.505665009659495 -3.945523562888931 -26.713685501448584
470 -12.567407628407063 17.211705055857795 19.02112624154321
468 -1.9022130787551572 -9.006439209240874 -2.11908541813091
114 21.558097694977103 0.02320721046279209 29.995792340432526
504 -1.704860130758956 -0.3140041170340038 -7.4899812520958635
116 13.766015096833515 19.62104929578692 -18.780234623336955
118 -2.0985545631236686 -0.9819419234829122 12.319413045349027
146 -21.925188351805346 15.919327227308015 -19.703982973212437
24 21.235471502671984 -30.94473146018573 4.452447112954973
244 -13.496911007241648 3.973430632974905 12.68276432938266
246 -6.0670170290998815 7.559010053811298 -10.5883501589906
152 -5.861901407774409 -7.570581336850256 -17.77104177826575
274 -2.738072899166603 -2.743586633861013 -18.04195666674249
372 14.373852578600246 8.3702946955643 -16.07917066751862
374 -29.109172098637455 7.246665800436885 -17.852526953668182
280 7.2088031140865745 20.48810248945018 -8.623073328100412
402 16.209170510410654 25.175619763630362 -37.34281527861407
500 8.127575783356216 3.027851028443268 4.873414984254325
502 -20.317573056221953 14.530975158154886 17.71267583879483
18 -4.165899136535996 -24.877172692139933 1.7356707597069263
408 3.4868930659677853 -6.332228077014021 -13.765110709756021
475 -13.782399534997849 9.318624545005024 -12.487340881819557
121 12.124355032344253 -3.599015837531213 -5.708930340679271
93 -8.619164597358244 15.197044275124359 4.254243352713136
95 1.4176569819778382 -6.226718786887179 -1.004903597382092
91 5.127537074308027 9.897247912834553 24.7820787118169
249 10.44360668283365 19.03293664500941 -29.498424466065792
221 21.578923676668673 15.620280649324368 16.695379816683925
255 10.387729888791007 12.777112193280935 13.17624283716778
219 -36.989490926552776 8.425690858742659 -12.51249259483259
345 13.139424213683146 -15.35550149131114 -41.158203632171755
349 0.9948369015166342 5.136042569082634 16.592250299083172
383 -1.2171118276033128 7.772455228018951 -15.573540165253089
347 -1.7198428620172415 -0.708680033074414 -22.156509112868417
473 -10.647668228778379 27.79067222826216 -6.929350451197556
477 16.607543552038585 -15.308985550018305 1.4636431922009998
479 -28.92787730729528 26.484678424050497 11.177925345091284
507 -6.5928587920806665 17.228740603887047 -10.780173293215135
25 9.681970835645393 23.112893068264615 1.1008967824395137
127 -44.97192735349973 -11.795269021184849 -8.57904785495292
125 -0.8884053051279456 25.94940758078062 6.70108306447943
31 19.773981947303284 10.630194910142169 31.418618723012784
123 -21.01398329686969 18.53157505326027 10.99405339827649
253 13.03143191195929 -28.931232165955567 -1.6468832839135443
159 3.0126819691069238 -11.815526439473992 -8.086942742629379
377 -11.217864104020855 -1.4828171386251767 9.283383949247765
251 -5.99887030324004 1.4153005591565868 -12.940654534045011
281 -16.61624225049183 -24.012305905631692 15.676119419895613
381 -13.302315769862727 -32.070395542178474 17.112291276398715
287 -23.418470985196137 -11.83934387116676 -13.053137186417812
505 -0.39969911520315443 -8.57940040893742 -3.314155365527111
379 -14.506148925609843 -11.824642740858456 4.023087857225387
511 7.772171718135161 -6.948358721035575 18.350192871120132
509 3.258219782714908 0.559562788387829 15.910144785677504
411 -4.619005566153179 -5.814828540060716 3.7691804991880753
29 4.745326322907045 21.73509277640584 -15.180566205316676
153 -4.178510281391476 -11.09231412171576 -13.53247170166349
27 13.957071905829425 -2.779084238967492 -10.2456373226622
157 -0.11404964933956227 -36.88971181805715 -8.43310428124168
191 -27.89556965560115 -1.6817856369382218 -17.631065898327968
155 -20.920790090493924 17.249877938785477 20.090789008946707
285 -7.482580187204634 -4.835243713827462 25.9720951762672
319 -8.152187194382272 7.830756112960468 4.900847432582931
409 22.46082368111801 20.702557344664132 19.84010194357398
283 -12.80918871421641 -2.5475441218379413 18.430102781659205
415 7.857177430621865 6.146748072407522 2.9201496121579593
413 -45.57590646612407 -4.020079797852931 -19.830868112491054
57 -18.06230379340231 2.5159730841340373 -12.85127089847855
89 -15.960605526502865 -5.381377485911974 12.582033431667742
443 -14.318257483191804 7.296279865192766 14.14861476130565
63 -12.668371672119973 1.9317510284816692 -10.273324692957166
61 27.032020627811278 20.840666278454005 17.37037214611476
217 9.290090101804937 3.482123451600741 12.883040523398686
185 23.520632497441543 -1.4187170416853339 8.639176788252335
59 -25.769398690311338 26.729390223740328 11.609059550899405
223 -17.266886035065028 -11.992053213740164 -0.11299725414263558
189 -13.53916943281481 -2.3972418111874267 -0.08358971378895715
313 4.702688789223167 21.412364967923047 -10.591980180520796
187 11.097483682223553 16.189365301401374 0.9146657684894791
351 11.79221479519095 27.320368965328953 1.0626327405884282
317 4.516772354901674 -11.758736077085661 3.7353001074728067
441 -8.677726885685178 -9.938042757076929 -18.120145077711122
315 20.118216685722764 1.3709884754829027 1.0313197762441046
447 -8.945221626993245 -1.664402053097898 -35.29600008894583
445 -12.713606541098919 -2.1883080564369686 -20.721355048932498
60 -14.467307209392882 22.723466944437472 10.565291777561992
90 -2.210691076388925 11.363988993275514 11.95399266312488
62 -11.981118224273226 24.19637309825368 -11.688254092438342
96 29.819116756756845 -32.90058909621139 12.219451098039974
188 19.7234814368144 16.08294625153413 3.938266370240036
218 18.073233312615432 -30.11796263565841 -1.7590411668062278
190 -8.493233086383091 0.8207709498694745 -29.5717028182903
224 12.51160002444366 -9.963245849682748 -17.29375920312787
316 10.40207815014173 -21.833976621820604 24.069968567194746
346 -12.228091776809233 6.219796582083907 -14.374738762902194
318 -13.605754160040984 -4.525657316487073 -2.338028483636576
352 2.388246473527799 1.8272961876795357 13.422191690956016
474 -41.55615686515337 44.411430045637886 2.747909090389411
444 -10.573938726735904 -20.630088052782003 8.61757480377543
446 -4.541041222841075 13.628962911663727 6.473458335785428
480 -11.593262003463998 0.9329496434178303 1.329709164004507
92 -17.341923435240993 25.32671384025821 27.115433815710045
122 -0.6827892590100345 -26.888397453392315 -0.9811254894585066
94 11.683958467750077 -28.492998301123553 -1.5254824223502068
128 -2.5889503445799367 3.4338777639869855 -8.173330652899168
220 -8.099982748229992 -27.086060692784795 -4.076376712077369
222 10.431403514205167 1.774694387678646 -16.344191779573176
256 16.099310737282757 6.571945745397754 0.5845033706424442
348 -5.7036149022326885 1.1274218569502903 -2.8255324858940707
378 7.2122203680490555 -0.7450807012874301 -13.610931826501774
350 20.88705993356775 -6.63867827530307 8.086381876782468
384 8.504164170531384 19.445164756091255 15.775524650847435
476 -1.8715887843868209 21.642262492743818 9.972788254996363
506 12.7862468520054 -10.824877664381862 7.830198683516015
478 -5.740583644647317 -8.853966682699335 12.187808282735446
512 -22.599256086276206 -32.258555387282165 -19.664867830087644
124 3.047277728747483 -17.096302505258553 10.220393733288093
26 -22.849315968904154 -16.822846507936987 -1.472599753709536
126 3.8734474835215633 -0.5200867801627936 6.306043387434175
32 54.98446241478398 -16.04733368761394 12.55119758259563
250 -8.583932323043351 -23.346606147312194 -7.735651307468935
252 30.129762060410208 -9.244796398143885 -21.419527215012035
154 12.973839417189877 -1.2695885086603877 -13.22903395851104
254 5.8219287233789805 41.70959287239042 -16.634186445278825
160 10.190494789688088 0.1769125450655881 -3.3800880544871603
380 -0.9625004749255338 -9.995134456500603 27.452407746690273
282 8.709965606311767 2.780374458068996 27.97209402847044
382 14.994921455283135 0.13636146965390003 11.023587282072613
288 0.6904318574221099 5.399167066717027 -27.17663763215042
508 -0.6263836227425824 -27.046470122336313 11.387893205911416
410 -12.671087534377829 7.785050179741332 -11.567361413531051
510 -5.593503317224263 -4.51128219018364 -31.65533773444831
416 18.09653502349019 -20.37949997552577 0.6328970305240342
58 11.993816177828382 -26.136257029420953 -29.281725908254124
28 -17.094448700052023 9.408484438038908 8.792660269355943
64 2.199313730245091 -15.691551919780405 -6.737490572728369
30 10.327137794542079 -14.527972982120856 9.444131261326453
186 24.649845073463982 0.058116642127023915 10.774658008689086
156 -10.579188262136675 -15.344007311877 -18.464185725954096
192 -1.2230530866046931 -14.934777400363814 -12.404364967580278
158 15.457101931047449 -13.225915073246385 6.588086236000012
314 -0.19771131800863487 -15.729766222036801 -16.446857087358875
284 46.2844770536248 11.05854618563997 21.69845065521534
320 -8.470042421463152 -30.719501573144885 20.498204909661638
286 -10.794970842696324 10.243106383548328 -22.911419512431404
442 13.828608320594679 -1.4179735802340614 -31.57160353378021
412 27.375842080491925 -14.711651626170097 14.52830796436792
448 -0.7949508762564874 23.66880311351821 8.637124436648156
414 -5.979786899367188 -16.3124288871104 1.8046219243434163
