(written by ASE)

512 atoms
1 atom types

0.0      17.093895277562531  xlo xhi
0.0      9.8691650400000022  ylo yhi
0.0      31.212292000000001  zlo zhi

Masses

     1      12.010999996910238 # C

Atoms # atomic

     1   1                       0                       0      1.9507682500000001
     2   1                       0                       0      5.8523047499999983
     3   1      3.5612281685806142      1.2336456300000005      1.9507682500000001
     4   1     0.71224565081001823      1.2336456300000003      5.8523047499999983
     5   1      2.1367369096953155              1.23364563      1.9507682500000001
     6   1      2.1367369096953155              1.23364563      5.8523047499999983
     7   1      1.4244912588852983   -3.12533367323928e-17      1.9507682500000001
     8   1       2.848982560505334 -1.8642573085047004e-16      5.8523047499999983
     9   1                       0                       0      9.7538412500000007
    10   1                       0                       0             13.65537775
    11   1      3.5612281685806142      1.2336456300000005      9.7538412500000007
    12   1     0.71224565081001823      1.2336456300000003             13.65537775
    13   1      2.1367369096953155              1.23364563      9.7538412500000007
    14   1      2.1367369096953155              1.23364563             13.65537775
    15   1      1.4244912588852983   -3.12533367323928e-17      9.7538412500000007
    16   1       2.848982560505334 -1.8642573085047004e-16             13.65537775
    17   1                       0                       0      17.556914250000002
    18   1                       0                       0      21.458450749999997
    19   1      3.5612281685806142      1.2336456300000005      17.556914250000002
    20   1     0.71224565081001823      1.2336456300000003      21.458450749999997
    21   1      2.1367369096953155              1.23364563      17.556914250000002
    22   1      2.1367369096953155              1.23364563      21.458450749999997
    23   1      1.4244912588852983   -3.12533367323928e-17      17.556914250000002
    24   1       2.848982560505334 -1.8642573085047004e-16      21.458450749999997
    25   1                       0                       0             25.35998725
    26   1                       0                       0      29.261523749999999
    27   1      3.5612281685806142      1.2336456300000005             25.35998725
    28   1     0.71224565081001823      1.2336456300000003      29.261523749999999
    29   1      2.1367369096953155              1.23364563             25.35998725
    30   1      2.1367369096953155              1.23364563      29.261523749999999
    31   1      1.4244912588852983   -3.12533367323928e-17             25.35998725
    32   1       2.848982560505334 -1.8642573085047004e-16      29.261523749999999
    33   1 -2.3722545147101446e-16       2.467291260000001      1.9507682500000001
    34   1 -2.3722545147101446e-16       2.467291260000001      5.8523047499999983
    35   1      3.5612281685806138      3.7009368900000013      1.9507682500000001
    36   1     0.71224565081001778      3.7009368900000008      5.8523047499999983
    37   1      2.1367369096953155      3.7009368900000013      1.9507682500000001
    38   1      2.1367369096953155      3.7009368900000013      5.8523047499999983
    39   1      1.4244912588852978      2.4672912600000005      1.9507682500000001
    40   1       2.848982560505334       2.467291260000001      5.8523047499999983
    41   1 -2.3722545147101446e-16       2.467291260000001      9.7538412500000007
    42   1 -2.3722545147101446e-16       2.467291260000001             13.65537775
    43   1      3.5612281685806138      3.7009368900000013      9.7538412500000007
    44   1     0.71224565081001778      3.7009368900000008             13.65537775
    45   1      2.1367369096953155      3.7009368900000013      9.7538412500000007
    46   1      2.1367369096953155      3.7009368900000013             13.65537775
    47   1      1.4244912588852978      2.4672912600000005      9.7538412500000007
    48   1       2.848982560505334       2.467291260000001             13.65537775
    49   1 -2.3722545147101446e-16       2.467291260000001      17.556914250000002
    50   1 -2.3722545147101446e-16       2.467291260000001      21.458450749999997
    51   1      3.5612281685806138      3.7009368900000013      17.556914250000002
    52   1     0.71224565081001778      3.7009368900000008      21.458450749999997
    53   1      2.1367369096953155      3.7009368900000013      17.556914250000002
    54   1      2.1367369096953155      3.7009368900000013      21.458450749999997
    55   1      1.4244912588852978      2.4672912600000005      17.556914250000002
    56   1       2.848982560505334       2.467291260000001      21.458450749999997
    57   1 -2.3722545147101446e-16       2.467291260000001             25.35998725
    58   1 -2.3722545147101446e-16       2.467291260000001      29.261523749999999
    59   1      3.5612281685806138      3.7009368900000013             25.35998725
    60   1     0.71224565081001778      3.7009368900000008      29.261523749999999
    61   1      2.1367369096953155      3.7009368900000013             25.35998725
    62   1      2.1367369096953155      3.7009368900000013      29.261523749999999
    63   1      1.4244912588852978      2.4672912600000005             25.35998725
    64   1       2.848982560505334       2.467291260000001      29.261523749999999
    65   1 -4.7445090294202892e-16       4.934582520000002      1.9507682500000001
    66   1 -4.7445090294202892e-16       4.934582520000002      5.8523047499999983
    67   1      3.5612281685806138      6.1682281500000027      1.9507682500000001
    68   1     0.71224565081001756      6.1682281500000027      5.8523047499999983
    69   1      2.1367369096953155      6.1682281500000018      1.9507682500000001
    70   1      2.1367369096953155      6.1682281500000018      5.8523047499999983
    71   1      1.4244912588852978       4.934582520000002      1.9507682500000001
    72   1      2.8489825605053336      4.9345825200000011      5.8523047499999983
    73   1 -4.7445090294202892e-16       4.934582520000002      9.7538412500000007
    74   1 -4.7445090294202892e-16       4.934582520000002             13.65537775
    75   1      3.5612281685806138      6.1682281500000027      9.7538412500000007
    76   1     0.71224565081001756      6.1682281500000027             13.65537775
    77   1      2.1367369096953155      6.1682281500000018      9.7538412500000007
    78   1      2.1367369096953155      6.1682281500000018             13.65537775
    79   1      1.4244912588852978       4.934582520000002      9.7538412500000007
    80   1      2.8489825605053336      4.9345825200000011             13.65537775
    81   1 -4.7445090294202892e-16       4.934582520000002      17.556914250000002
    82   1 -4.7445090294202892e-16       4.934582520000002      21.458450749999997
    83   1      3.5612281685806138      6.1682281500000027      17.556914250000002
    84   1     0.71224565081001756      6.1682281500000027      21.458450749999997
    85   1      2.1367369096953155      6.1682281500000018      17.556914250000002
    86   1      2.1367369096953155      6.1682281500000018      21.458450749999997
    87   1      1.4244912588852978       4.934582520000002      17.556914250000002
    88   1      2.8489825605053336      4.9345825200000011      21.458450749999997
    89   1 -4.7445090294202892e-16       4.934582520000002             25.35998725
    90   1 -4.7445090294202892e-16       4.934582520000002      29.261523749999999
    91   1      3.5612281685806138      6.1682281500000027             25.35998725
    92   1     0.71224565081001756      6.1682281500000027      29.261523749999999
    93   1      2.1367369096953155      6.1682281500000018             25.35998725
    94   1      2.1367369096953155      6.1682281500000018      29.261523749999999
    95   1      1.4244912588852978       4.934582520000002             25.35998725
    96   1      2.8489825605053336      4.9345825200000011      29.261523749999999
    97   1 -7.1167635441304334e-16      7.4018737800000025      1.9507682500000001
    98   1 -7.1167635441304334e-16      7.4018737800000025      5.8523047499999983
    99   1      3.5612281685806138      8.6355194100000041      1.9507682500000001
   100   1     0.71224565081001823      8.6355194100000023      5.8523047499999983
   101   1      2.1367369096953146      8.6355194100000023      1.9507682500000001
   102   1      2.1367369096953146      8.6355194100000023      5.8523047499999983
   103   1      1.4244912588852976      7.4018737800000016      1.9507682500000001
   104   1      2.8489825605053336      7.4018737800000025      5.8523047499999983
   105   1 -7.1167635441304334e-16      7.4018737800000025      9.7538412500000007
   106   1 -7.1167635441304334e-16      7.4018737800000025             13.65537775
   107   1      3.5612281685806138      8.6355194100000041      9.7538412500000007
   108   1     0.71224565081001823      8.6355194100000023             13.65537775
   109   1      2.1367369096953146      8.6355194100000023      9.7538412500000007
   110   1      2.1367369096953146      8.6355194100000023             13.65537775
   111   1      1.4244912588852976      7.4018737800000016      9.7538412500000007
   112   1      2.8489825605053336      7.4018737800000025             13.65537775
   113   1 -7.1167635441304334e-16      7.4018737800000025      17.556914250000002
   114   1 -7.1167635441304334e-16      7.4018737800000025      21.458450749999997
   115   1      3.5612281685806138      8.6355194100000041      17.556914250000002
   116   1     0.71224565081001823      8.6355194100000023      21.458450749999997
   117   1      2.1367369096953146      8.6355194100000023      17.556914250000002
   118   1      2.1367369096953146      8.6355194100000023      21.458450749999997
   119   1      1.4244912588852976      7.4018737800000016      17.556914250000002
   120   1      2.8489825605053336      7.4018737800000025      21.458450749999997
   121   1 -7.1167635441304334e-16      7.4018737800000025             25.35998725
   122   1 -7.1167635441304334e-16      7.4018737800000025      29.261523749999999
   123   1      3.5612281685806138      8.6355194100000041             25.35998725
   124   1     0.71224565081001823      8.6355194100000023      29.261523749999999
   125   1      2.1367369096953146      8.6355194100000023             25.35998725
   126   1      2.1367369096953146      8.6355194100000023      29.261523749999999
   127   1      1.4244912588852976      7.4018737800000016             25.35998725
   128   1      2.8489825605053336      7.4018737800000025      29.261523749999999
   129   1      4.2734738193906328 -3.1382720190204104e-16      1.9507682500000001
   130   1      4.2734738193906328 -3.1382720190204104e-16      5.8523047499999983
   131   1      7.8347019879712461      1.2336456300000005      1.9507682500000001
   132   1      4.9857194702006513      1.2336456299999998      5.8523047499999983
   133   1      6.4102107290859482              1.23364563      1.9507682500000001
   134   1      6.4102107290859482              1.23364563      5.8523047499999983
   135   1      5.6979650782759306  -6.632732778786434e-16      1.9507682500000001
   136   1      7.1224563798959659 -2.7820832782747977e-16      5.8523047499999983
   137   1      4.2734738193906328 -3.1382720190204104e-16      9.7538412500000007
   138   1      4.2734738193906328 -3.1382720190204104e-16             13.65537775
   139   1      7.8347019879712461      1.2336456300000005      9.7538412500000007
   140   1      4.9857194702006513      1.2336456299999998             13.65537775
   141   1      6.4102107290859482              1.23364563      9.7538412500000007
   142   1      6.4102107290859482              1.23364563             13.65537775
   143   1      5.6979650782759306  -6.632732778786434e-16      9.7538412500000007
   144   1      7.1224563798959659 -2.7820832782747977e-16             13.65537775
   145   1      4.2734738193906328 -3.1382720190204104e-16      17.556914250000002
   146   1      4.2734738193906328 -3.1382720190204104e-16      21.458450749999997
   147   1      7.8347019879712461      1.2336456300000005      17.556914250000002
   148   1      4.9857194702006513      1.2336456299999998      21.458450749999997
   149   1      6.4102107290859482              1.23364563      17.556914250000002
   150   1      6.4102107290859482              1.23364563      21.458450749999997
   151   1      5.6979650782759306  -6.632732778786434e-16      17.556914250000002
   152   1      7.1224563798959659 -2.7820832782747977e-16      21.458450749999997
   153   1      4.2734738193906328 -3.1382720190204104e-16             25.35998725
   154   1      4.2734738193906328 -3.1382720190204104e-16      29.261523749999999
   155   1      7.8347019879712461      1.2336456300000005             25.35998725
   156   1      4.9857194702006513      1.2336456299999998      29.261523749999999
   157   1      6.4102107290859482              1.23364563             25.35998725
   158   1      6.4102107290859482              1.23364563      29.261523749999999
   159   1      5.6979650782759306  -6.632732778786434e-16             25.35998725
   160   1      7.1224563798959659 -2.7820832782747977e-16      29.261523749999999
   161   1      4.2734738193906319      2.4672912600000005      1.9507682500000001
   162   1      4.2734738193906319      2.4672912600000005      5.8523047499999983
   163   1      7.8347019879712452      3.7009368900000008      1.9507682500000001
   164   1      4.9857194702006504      3.7009368900000008      5.8523047499999983
   165   1      6.4102107290859482      3.7009368900000008      1.9507682500000001
   166   1      6.4102107290859482      3.7009368900000008      5.8523047499999983
   167   1      5.6979650782759306      2.4672912600000005      1.9507682500000001
   168   1      7.1224563798959659      2.4672912600000005      5.8523047499999983
   169   1      4.2734738193906319      2.4672912600000005      9.7538412500000007
   170   1      4.2734738193906319      2.4672912600000005             13.65537775
   171   1      7.8347019879712452      3.7009368900000008      9.7538412500000007
   172   1      4.9857194702006504      3.7009368900000008             13.65537775
   173   1      6.4102107290859482      3.7009368900000008      9.7538412500000007
   174   1      6.4102107290859482      3.7009368900000008             13.65537775
   175   1      5.6979650782759306      2.4672912600000005      9.7538412500000007
   176   1      7.1224563798959659      2.4672912600000005             13.65537775
   177   1      4.2734738193906319      2.4672912600000005      17.556914250000002
   178   1      4.2734738193906319      2.4672912600000005      21.458450749999997
   179   1      7.8347019879712452      3.7009368900000008      17.556914250000002
   180   1      4.9857194702006504      3.7009368900000008      21.458450749999997
   181   1      6.4102107290859482      3.7009368900000008      17.556914250000002
   182   1      6.4102107290859482      3.7009368900000008      21.458450749999997
   183   1      5.6979650782759306      2.4672912600000005      17.556914250000002
   184   1      7.1224563798959659      2.4672912600000005      21.458450749999997
   185   1      4.2734738193906319      2.4672912600000005             25.35998725
   186   1      4.2734738193906319      2.4672912600000005      29.261523749999999
   187   1      7.8347019879712452      3.7009368900000008             25.35998725
   188   1      4.9857194702006504      3.7009368900000008      29.261523749999999
   189   1      6.4102107290859482      3.7009368900000008             25.35998725
   190   1      6.4102107290859482      3.7009368900000008      29.261523749999999
   191   1      5.6979650782759306      2.4672912600000005             25.35998725
   192   1      7.1224563798959659      2.4672912600000005      29.261523749999999
   193   1      4.2734738193906319       4.934582520000002      1.9507682500000001
   194   1      4.2734738193906319       4.934582520000002      5.8523047499999983
   195   1      7.8347019879712461      6.1682281500000018      1.9507682500000001
   196   1      4.9857194702006513      6.1682281500000018      5.8523047499999983
   197   1      6.4102107290859482      6.1682281500000018      1.9507682500000001
   198   1      6.4102107290859482      6.1682281500000018      5.8523047499999983
   199   1      5.6979650782759306      4.9345825200000011      1.9507682500000001
   200   1      7.1224563798959668       4.934582520000002      5.8523047499999983
   201   1      4.2734738193906319       4.934582520000002      9.7538412500000007
   202   1      4.2734738193906319       4.934582520000002             13.65537775
   203   1      7.8347019879712461      6.1682281500000018      9.7538412500000007
   204   1      4.9857194702006513      6.1682281500000018             13.65537775
   205   1      6.4102107290859482      6.1682281500000018      9.7538412500000007
   206   1      6.4102107290859482      6.1682281500000018             13.65537775
   207   1      5.6979650782759306      4.9345825200000011      9.7538412500000007
   208   1      7.1224563798959668       4.934582520000002             13.65537775
   209   1      4.2734738193906319       4.934582520000002      17.556914250000002
   210   1      4.2734738193906319       4.934582520000002      21.458450749999997
   211   1      7.8347019879712461      6.1682281500000018      17.556914250000002
   212   1      4.9857194702006513      6.1682281500000018      21.458450749999997
   213   1      6.4102107290859482      6.1682281500000018      17.556914250000002
   214   1      6.4102107290859482      6.1682281500000018      21.458450749999997
   215   1      5.6979650782759306      4.9345825200000011      17.556914250000002
   216   1      7.1224563798959668       4.934582520000002      21.458450749999997
   217   1      4.2734738193906319       4.934582520000002             25.35998725
   218   1      4.2734738193906319       4.934582520000002      29.261523749999999
   219   1      7.8347019879712461      6.1682281500000018             25.35998725
   220   1      4.9857194702006513      6.1682281500000018      29.261523749999999
   221   1      6.4102107290859482      6.1682281500000018             25.35998725
   222   1      6.4102107290859482      6.1682281500000018      29.261523749999999
   223   1      5.6979650782759306      4.9345825200000011             25.35998725
   224   1      7.1224563798959668       4.934582520000002      29.261523749999999
   225   1       4.273473819390631      7.4018737800000016      1.9507682500000001
   226   1       4.273473819390631      7.4018737800000016      5.8523047499999983
   227   1      7.8347019879712461      8.6355194100000023      1.9507682500000001
   228   1      4.9857194702006504      8.6355194100000023      5.8523047499999983
   229   1      6.4102107290859465      8.6355194100000006      1.9507682500000001
   230   1      6.4102107290859465      8.6355194100000006      5.8523047499999983
   231   1      5.6979650782759306      7.4018737800000016      1.9507682500000001
   232   1      7.1224563798959659      7.4018737800000007      5.8523047499999983
   233   1       4.273473819390631      7.4018737800000016      9.7538412500000007
   234   1       4.273473819390631      7.4018737800000016             13.65537775
   235   1      7.8347019879712461      8.6355194100000023      9.7538412500000007
   236   1      4.9857194702006504      8.6355194100000023             13.65537775
   237   1      6.4102107290859465      8.6355194100000006      9.7538412500000007
   238   1      6.4102107290859465      8.6355194100000006             13.65537775
   239   1      5.6979650782759306      7.4018737800000016      9.7538412500000007
   240   1      7.1224563798959659      7.4018737800000007             13.65537775
   241   1       4.273473819390631      7.4018737800000016      17.556914250000002
   242   1       4.273473819390631      7.4018737800000016      21.458450749999997
   243   1      7.8347019879712461      8.6355194100000023      17.556914250000002
   244   1      4.9857194702006504      8.6355194100000023      21.458450749999997
   245   1      6.4102107290859465      8.6355194100000006      17.556914250000002
   246   1      6.4102107290859465      8.6355194100000006      21.458450749999997
   247   1      5.6979650782759306      7.4018737800000016      17.556914250000002
   248   1      7.1224563798959659      7.4018737800000007      21.458450749999997
   249   1       4.273473819390631      7.4018737800000016             25.35998725
   250   1       4.273473819390631      7.4018737800000016      29.261523749999999
   251   1      7.8347019879712461      8.6355194100000023             25.35998725
   252   1      4.9857194702006504      8.6355194100000023      29.261523749999999
   253   1      6.4102107290859465      8.6355194100000006             25.35998725
   254   1      6.4102107290859465      8.6355194100000006      29.261523749999999
   255   1      5.6979650782759306      7.4018737800000016             25.35998725
   256   1      7.1224563798959659      7.4018737800000007      29.261523749999999
   257   1      8.5469476387812655 -6.2765440380408208e-16      1.9507682500000001
   258   1      8.5469476387812655 -6.2765440380408208e-16      5.8523047499999983
   259   1      12.108175807361878      1.2336456299999994      1.9507682500000001
   260   1      9.2591932895912823      1.2336456299999996      5.8523047499999983
   261   1      10.683684548476579      1.2336456299999992      1.9507682500000001
   262   1      10.683684548476579      1.2336456299999992      5.8523047499999983
   263   1      9.9714388976665624 -5.3301126993062178e-16      1.9507682500000001
   264   1        11.3959301992866 -9.7662806700623363e-16      5.8523047499999983
   265   1      8.5469476387812655 -6.2765440380408208e-16      9.7538412500000007
   266   1      8.5469476387812655 -6.2765440380408208e-16             13.65537775
   267   1      12.108175807361878      1.2336456299999994      9.7538412500000007
   268   1      9.2591932895912823      1.2336456299999996             13.65537775
   269   1      10.683684548476579      1.2336456299999992      9.7538412500000007
   270   1      10.683684548476579      1.2336456299999992             13.65537775
   271   1      9.9714388976665624 -5.3301126993062178e-16      9.7538412500000007
   272   1        11.3959301992866 -9.7662806700623363e-16             13.65537775
   273   1      8.5469476387812655 -6.2765440380408208e-16      17.556914250000002
   274   1      8.5469476387812655 -6.2765440380408208e-16      21.458450749999997
   275   1      12.108175807361878      1.2336456299999994      17.556914250000002
   276   1      9.2591932895912823      1.2336456299999996      21.458450749999997
   277   1      10.683684548476579      1.2336456299999992      17.556914250000002
   278   1      10.683684548476579      1.2336456299999992      21.458450749999997
   279   1      9.9714388976665624 -5.3301126993062178e-16      17.556914250000002
   280   1        11.3959301992866 -9.7662806700623363e-16      21.458450749999997
   281   1      8.5469476387812655 -6.2765440380408208e-16             25.35998725
   282   1      8.5469476387812655 -6.2765440380408208e-16      29.261523749999999
   283   1      12.108175807361878      1.2336456299999994             25.35998725
   284   1      9.2591932895912823      1.2336456299999996      29.261523749999999
   285   1      10.683684548476579      1.2336456299999992             25.35998725
   286   1      10.683684548476579      1.2336456299999992      29.261523749999999
   287   1      9.9714388976665624 -5.3301126993062178e-16             25.35998725
   288   1        11.3959301992866 -9.7662806700623363e-16      29.261523749999999
   289   1      8.5469476387812637      2.4672912599999997      1.9507682500000001
   290   1      8.5469476387812637      2.4672912599999997      5.8523047499999983
   291   1      12.108175807361878      3.7009368900000008      1.9507682500000001
   292   1      9.2591932895912823      3.7009368899999999      5.8523047499999983
   293   1      10.683684548476581      3.7009368899999995      1.9507682500000001
   294   1      10.683684548476581      3.7009368899999995      5.8523047499999983
   295   1      9.9714388976665624      2.4672912600000001      1.9507682500000001
   296   1      11.395930199286598      2.4672912599999988      5.8523047499999983
   297   1      8.5469476387812637      2.4672912599999997      9.7538412500000007
   298   1      8.5469476387812637      2.4672912599999997             13.65537775
   299   1      12.108175807361878      3.7009368900000008      9.7538412500000007
   300   1      9.2591932895912823      3.7009368899999999             13.65537775
   301   1      10.683684548476581      3.7009368899999995      9.7538412500000007
   302   1      10.683684548476581      3.7009368899999995             13.65537775
   303   1      9.9714388976665624      2.4672912600000001      9.7538412500000007
   304   1      11.395930199286598      2.4672912599999988             13.65537775
   305   1      8.5469476387812637      2.4672912599999997      17.556914250000002
   306   1      8.5469476387812637      2.4672912599999997      21.458450749999997
   307   1      12.108175807361878      3.7009368900000008      17.556914250000002
   308   1      9.2591932895912823      3.7009368899999999      21.458450749999997
   309   1      10.683684548476581      3.7009368899999995      17.556914250000002
   310   1      10.683684548476581      3.7009368899999995      21.458450749999997
   311   1      9.9714388976665624      2.4672912600000001      17.556914250000002
   312   1      11.395930199286598      2.4672912599999988      21.458450749999997
   313   1      8.5469476387812637      2.4672912599999997             25.35998725
   314   1      8.5469476387812637      2.4672912599999997      29.261523749999999
   315   1      12.108175807361878      3.7009368900000008             25.35998725
   316   1      9.2591932895912823      3.7009368899999999      29.261523749999999
   317   1      10.683684548476581      3.7009368899999995             25.35998725
   318   1      10.683684548476581      3.7009368899999995      29.261523749999999
   319   1      9.9714388976665624      2.4672912600000001             25.35998725
   320   1      11.395930199286598      2.4672912599999988      29.261523749999999
   321   1      8.5469476387812637      4.9345825200000011      1.9507682500000001
   322   1      8.5469476387812637      4.9345825200000011      5.8523047499999983
   323   1      12.108175807361878      6.1682281500000027      1.9507682500000001
   324   1      9.2591932895912841      6.1682281500000018      5.8523047499999983
   325   1      10.683684548476579      6.1682281500000018      1.9507682500000001
   326   1      10.683684548476579      6.1682281500000018      5.8523047499999983
   327   1      9.9714388976665624      4.9345825200000011      1.9507682500000001
   328   1      11.395930199286598      4.9345825200000011      5.8523047499999983
   329   1      8.5469476387812637      4.9345825200000011      9.7538412500000007
   330   1      8.5469476387812637      4.9345825200000011             13.65537775
   331   1      12.108175807361878      6.1682281500000027      9.7538412500000007
   332   1      9.2591932895912841      6.1682281500000018             13.65537775
   333   1      10.683684548476579      6.1682281500000018      9.7538412500000007
   334   1      10.683684548476579      6.1682281500000018             13.65537775
   335   1      9.9714388976665624      4.9345825200000011      9.7538412500000007
   336   1      11.395930199286598      4.9345825200000011             13.65537775
   337   1      8.5469476387812637      4.9345825200000011      17.556914250000002
   338   1      8.5469476387812637      4.9345825200000011      21.458450749999997
   339   1      12.108175807361878      6.1682281500000027      17.556914250000002
   340   1      9.2591932895912841      6.1682281500000018      21.458450749999997
   341   1      10.683684548476579      6.1682281500000018      17.556914250000002
   342   1      10.683684548476579      6.1682281500000018      21.458450749999997
   343   1      9.9714388976665624      4.9345825200000011      17.556914250000002
   344   1      11.395930199286598      4.9345825200000011      21.458450749999997
   345   1      8.5469476387812637      4.9345825200000011             25.35998725
   346   1      8.5469476387812637      4.9345825200000011      29.261523749999999
   347   1      12.108175807361878      6.1682281500000027             25.35998725
   348   1      9.2591932895912841      6.1682281500000018      29.261523749999999
   349   1      10.683684548476579      6.1682281500000018             25.35998725
   350   1      10.683684548476579      6.1682281500000018      29.261523749999999
   351   1      9.9714388976665624      4.9345825200000011             25.35998725
   352   1      11.395930199286598      4.9345825200000011      29.261523749999999
   353   1      8.5469476387812637      7.4018737800000007      1.9507682500000001
   354   1      8.5469476387812637      7.4018737800000007      5.8523047499999983
   355   1      12.108175807361878      8.6355194100000023      1.9507682500000001
   356   1      9.2591932895912823      8.6355194100000023      5.8523047499999983
   357   1      10.683684548476581      8.6355194100000023      1.9507682500000001
   358   1      10.683684548476581      8.6355194100000023      5.8523047499999983
   359   1      9.9714388976665624      7.4018737800000025      1.9507682500000001
   360   1        11.3959301992866      7.4018737800000016      5.8523047499999983
   361   1      8.5469476387812637      7.4018737800000007      9.7538412500000007
   362   1      8.5469476387812637      7.4018737800000007             13.65537775
   363   1      12.108175807361878      8.6355194100000023      9.7538412500000007
   364   1      9.2591932895912823      8.6355194100000023             13.65537775
   365   1      10.683684548476581      8.6355194100000023      9.7538412500000007
   366   1      10.683684548476581      8.6355194100000023             13.65537775
   367   1      9.9714388976665624      7.4018737800000025      9.7538412500000007
   368   1        11.3959301992866      7.4018737800000016             13.65537775
   369   1      8.5469476387812637      7.4018737800000007      17.556914250000002
   370   1      8.5469476387812637      7.4018737800000007      21.458450749999997
   371   1      12.108175807361878      8.6355194100000023      17.556914250000002
   372   1      9.2591932895912823      8.6355194100000023      21.458450749999997
   373   1      10.683684548476581      8.6355194100000023      17.556914250000002
   374   1      10.683684548476581      8.6355194100000023      21.458450749999997
   375   1      9.9714388976665624      7.4018737800000025      17.556914250000002
   376   1        11.3959301992866      7.4018737800000016      21.458450749999997
   377   1      8.5469476387812637      7.4018737800000007             25.35998725
   378   1      8.5469476387812637      7.4018737800000007      29.261523749999999
   379   1      12.108175807361878      8.6355194100000023             25.35998725
   380   1      9.2591932895912823      8.6355194100000023      29.261523749999999
   381   1      10.683684548476581      8.6355194100000023             25.35998725
   382   1      10.683684548476581      8.6355194100000023      29.261523749999999
   383   1      9.9714388976665624      7.4018737800000025             25.35998725
   384   1        11.3959301992866      7.4018737800000016      29.261523749999999
   385   1      12.820421458171896 -1.0009782782794729e-15      1.9507682500000001
   386   1      12.820421458171896 -1.0009782782794729e-15      5.8523047499999983
   387   1      16.381649626752509      1.2336456300000005      1.9507682500000001
   388   1      13.532667108981915      1.2336456300000005      5.8523047499999983
   389   1      14.957158367867212      1.2336456299999996      1.9507682500000001
   390   1      14.957158367867212      1.2336456299999996      5.8523047499999983
   391   1      14.244912717057195 -1.8156724705887392e-17      1.9507682500000001
   392   1      15.669404018677229 -5.8076686692819885e-16      5.8523047499999983
   393   1      12.820421458171896 -1.0009782782794729e-15      9.7538412500000007
   394   1      12.820421458171896 -1.0009782782794729e-15             13.65537775
   395   1      16.381649626752509      1.2336456300000005      9.7538412500000007
   396   1      13.532667108981915      1.2336456300000005             13.65537775
   397   1      14.957158367867212      1.2336456299999996      9.7538412500000007
   398   1      14.957158367867212      1.2336456299999996             13.65537775
   399   1      14.244912717057195 -1.8156724705887392e-17      9.7538412500000007
   400   1      15.669404018677229 -5.8076686692819885e-16             13.65537775
   401   1      12.820421458171896 -1.0009782782794729e-15      17.556914250000002
   402   1      12.820421458171896 -1.0009782782794729e-15      21.458450749999997
   403   1      16.381649626752509      1.2336456300000005      17.556914250000002
   404   1      13.532667108981915      1.2336456300000005      21.458450749999997
   405   1      14.957158367867212      1.2336456299999996      17.556914250000002
   406   1      14.957158367867212      1.2336456299999996      21.458450749999997
   407   1      14.244912717057195 -1.8156724705887392e-17      17.556914250000002
   408   1      15.669404018677229 -5.8076686692819885e-16      21.458450749999997
   409   1      12.820421458171896 -1.0009782782794729e-15             25.35998725
   410   1      12.820421458171896 -1.0009782782794729e-15      29.261523749999999
   411   1      16.381649626752509      1.2336456300000005             25.35998725
   412   1      13.532667108981915      1.2336456300000005      29.261523749999999
   413   1      14.957158367867212      1.2336456299999996             25.35998725
   414   1      14.957158367867212      1.2336456299999996      29.261523749999999
   415   1      14.244912717057195 -1.8156724705887392e-17             25.35998725
   416   1      15.669404018677229 -5.8076686692819885e-16      29.261523749999999
   417   1      12.820421458171896      2.4672912600000005      1.9507682500000001
   418   1      12.820421458171896      2.4672912600000005      5.8523047499999983
   419   1      16.381649626752509      3.7009368900000013      1.9507682500000001
   420   1      13.532667108981915      3.7009368900000008      5.8523047499999983
   421   1      14.957158367867212      3.7009368900000004      1.9507682500000001
   422   1      14.957158367867212      3.7009368900000004      5.8523047499999983
   423   1      14.244912717057193       2.467291260000001      1.9507682500000001
   424   1      15.669404018677231       2.467291260000001      5.8523047499999983
   425   1      12.820421458171896      2.4672912600000005      9.7538412500000007
   426   1      12.820421458171896      2.4672912600000005             13.65537775
   427   1      16.381649626752509      3.7009368900000013      9.7538412500000007
   428   1      13.532667108981915      3.7009368900000008             13.65537775
   429   1      14.957158367867212      3.7009368900000004      9.7538412500000007
   430   1      14.957158367867212      3.7009368900000004             13.65537775
   431   1      14.244912717057193       2.467291260000001      9.7538412500000007
   432   1      15.669404018677231       2.467291260000001             13.65537775
   433   1      12.820421458171896      2.4672912600000005      17.556914250000002
   434   1      12.820421458171896      2.4672912600000005      21.458450749999997
   435   1      16.381649626752509      3.7009368900000013      17.556914250000002
   436   1      13.532667108981915      3.7009368900000008      21.458450749999997
   437   1      14.957158367867212      3.7009368900000004      17.556914250000002
   438   1      14.957158367867212      3.7009368900000004      21.458450749999997
   439   1      14.244912717057193       2.467291260000001      17.556914250000002
   440   1      15.669404018677231       2.467291260000001      21.458450749999997
   441   1      12.820421458171896      2.4672912600000005             25.35998725
   442   1      12.820421458171896      2.4672912600000005      29.261523749999999
   443   1      16.381649626752509      3.7009368900000013             25.35998725
   444   1      13.532667108981915      3.7009368900000008      29.261523749999999
   445   1      14.957158367867212      3.7009368900000004             25.35998725
   446   1      14.957158367867212      3.7009368900000004      29.261523749999999
   447   1      14.244912717057193       2.467291260000001             25.35998725
   448   1      15.669404018677231       2.467291260000001      29.261523749999999
   449   1      12.820421458171896       4.934582520000002      1.9507682500000001
   450   1      12.820421458171896       4.934582520000002      5.8523047499999983
   451   1      16.381649626752509      6.1682281500000018      1.9507682500000001
   452   1      13.532667108981915      6.1682281500000018      5.8523047499999983
   453   1      14.957158367867212      6.1682281500000018      1.9507682500000001
   454   1      14.957158367867212      6.1682281500000018      5.8523047499999983
   455   1      14.244912717057195       4.934582520000002      1.9507682500000001
   456   1      15.669404018677232       4.934582520000002      5.8523047499999983
   457   1      12.820421458171896       4.934582520000002      9.7538412500000007
   458   1      12.820421458171896       4.934582520000002             13.65537775
   459   1      16.381649626752509      6.1682281500000018      9.7538412500000007
   460   1      13.532667108981915      6.1682281500000018             13.65537775
   461   1      14.957158367867212      6.1682281500000018      9.7538412500000007
   462   1      14.957158367867212      6.1682281500000018             13.65537775
   463   1      14.244912717057195       4.934582520000002      9.7538412500000007
   464   1      15.669404018677232       4.934582520000002             13.65537775
   465   1      12.820421458171896       4.934582520000002      17.556914250000002
   466   1      12.820421458171896       4.934582520000002      21.458450749999997
   467   1      16.381649626752509      6.1682281500000018      17.556914250000002
   468   1      13.532667108981915      6.1682281500000018      21.458450749999997
   469   1      14.957158367867212      6.1682281500000018      17.556914250000002
   470   1      14.957158367867212      6.1682281500000018      21.458450749999997
   471   1      14.244912717057195       4.934582520000002      17.556914250000002
   472   1      15.669404018677232       4.934582520000002      21.458450749999997
   473   1      12.820421458171896       4.934582520000002             25.35998725
   474   1      12.820421458171896       4.934582520000002      29.261523749999999
   475   1      16.381649626752509      6.1682281500000018             25.35998725
   476   1      13.532667108981915      6.1682281500000018      29.261523749999999
   477   1      14.957158367867212      6.1682281500000018             25.35998725
   478   1      14.957158367867212      6.1682281500000018      29.261523749999999
   479   1      14.244912717057195       4.934582520000002             25.35998725
   480   1      15.669404018677232       4.934582520000002      29.261523749999999
   481   1      12.820421458171896      7.4018737800000016      1.9507682500000001
   482   1      12.820421458171896      7.4018737800000016      5.8523047499999983
   483   1      16.381649626752509      8.6355194100000006      1.9507682500000001
   484   1      13.532667108981915      8.6355194100000023      5.8523047499999983
   485   1      14.957158367867214      8.6355194100000023      1.9507682500000001
   486   1      14.957158367867214      8.6355194100000023      5.8523047499999983
   487   1      14.244912717057192      7.4018737800000007      1.9507682500000001
   488   1      15.669404018677229      7.4018737800000007      5.8523047499999983
   489   1      12.820421458171896      7.4018737800000016      9.7538412500000007
   490   1      12.820421458171896      7.4018737800000016             13.65537775
   491   1      16.381649626752509      8.6355194100000006      9.7538412500000007
   492   1      13.532667108981915      8.6355194100000023             13.65537775
   493   1      14.957158367867214      8.6355194100000023      9.7538412500000007
   494   1      14.957158367867214      8.6355194100000023             13.65537775
   495   1      14.244912717057192      7.4018737800000007      9.7538412500000007
   496   1      15.669404018677229      7.4018737800000007             13.65537775
   497   1      12.820421458171896      7.4018737800000016      17.556914250000002
   498   1      12.820421458171896      7.4018737800000016      21.458450749999997
   499   1      16.381649626752509      8.6355194100000006      17.556914250000002
   500   1      13.532667108981915      8.6355194100000023      21.458450749999997
   501   1      14.957158367867214      8.6355194100000023      17.556914250000002
   502   1      14.957158367867214      8.6355194100000023      21.458450749999997
   503   1      14.244912717057192      7.4018737800000007      17.556914250000002
   504   1      15.669404018677229      7.4018737800000007      21.458450749999997
   505   1      12.820421458171896      7.4018737800000016             25.35998725
   506   1      12.820421458171896      7.4018737800000016      29.261523749999999
   507   1      16.381649626752509      8.6355194100000006             25.35998725
   508   1      13.532667108981915      8.6355194100000023      29.261523749999999
   509   1      14.957158367867214      8.6355194100000023             25.35998725
   510   1      14.957158367867214      8.6355194100000023      29.261523749999999
   511   1      14.244912717057192      7.4018737800000007             25.35998725
   512   1      15.669404018677229      7.4018737800000007      29.261523749999999
