LAMMPS data file via write_data, version 22 Jul 2025, timestep = 200001, units = metal

512 atoms
1 atom types

0.0945506601765338 16.999344617387052 xlo xhi
0.07364089303052967 9.795524146969067 ylo yhi
7.316546219132338 23.895745780867628 zlo zhi

Masses

1 12.01099999691024

Atoms # atomic

39 1 0.12098720290783868 1.1096579093311314 8.232951365875405 0 0 0
5 1 0.9687020510649592 9.622271587873668 8.754401577226787 0 -1 0
3 1 2.3480230072568986 9.698340534314895 8.681840302062652 0 -1 0
161 1 3.058812847326168 1.1828757766190452 8.473209161623995 0 0 0
167 1 4.520600407747979 1.2733954459549253 8.713869997719645 0 0 0
133 1 5.098911005676073 9.726214373966306 8.35727030652362 0 -1 0
131 1 6.453497767690409 9.750370498222862 8.498791192236691 0 -1 0
289 1 7.171539897706172 1.2697111497208091 8.504497052373175 0 0 0
295 1 8.605940985962357 1.2928988780663422 8.38892696674775 0 0 0
261 1 9.406366697444824 9.763050582145306 8.519470344475405 0 -1 0
259 1 10.731415348199258 0.09898245574911327 8.674029129619486 0 0 0
417 1 11.53592680973728 1.220257073111702 8.526667192886638 0 0 0
423 1 12.806386067182183 1.2775308023047631 8.181140397477225 0 0 0
389 1 13.589911758482076 0.18191697060634004 8.138776349997979 0 0 0
33 1 15.656747773703282 1.2448156505194483 8.590848330507592 -1 0 0
387 1 15.00038826814111 0.15019519705315862 8.219917381627758 0 0 0
37 1 0.9849445635963844 2.324360943579037 8.416901264467919 0 0 0
71 1 0.25860505982874205 3.6315808458969956 8.23306989923713 0 0 0
35 1 2.481180435007023 2.3209743974003105 8.540176542442484 0 0 0
193 1 3.076034592348 3.5438584156835837 8.2597502604407 0 0 0
199 1 4.4857753638089894 3.652750042721793 8.50321756987091 0 0 0
165 1 5.173604692692244 2.462793877183509 8.340639531339644 0 0 0
163 1 6.48196269420489 2.540445242844677 8.512302068590431 0 0 0
321 1 7.302077391483517 3.829863857635324 8.570664930646371 0 0 0
293 1 9.412318264448157 2.4171538583982275 8.389440685076089 0 0 0
327 1 8.594543436869548 3.793925977974291 8.443317643945731 0 0 0
291 1 10.766965053984482 2.3776848110908264 8.592615344565353 0 0 0
449 1 11.510998569706329 3.7533235042195017 8.328499062024857 0 0 0
421 1 13.388357334350903 2.3464378675940942 8.087349349733024 0 0 0
455 1 12.869855222927397 3.6752257390017546 8.180796960177396 0 0 0
419 1 14.980631120138396 2.3944680181154885 8.12323477382878 0 0 0
65 1 15.696711408937128 3.722172169118328 8.007508261604682 -1 0 0
69 1 0.9338342858415309 4.797110170224743 8.334782814355343 0 0 0
103 1 0.2870961019606513 6.021909032848284 8.352521375009536 0 0 0
67 1 2.3812871839434036 4.701548640963511 8.492678211126714 0 0 0
225 1 3.075222937002319 6.081498015031173 8.585470558187705 0 0 0
195 1 6.586809333110505 4.940366239647059 8.574992897846624 0 0 0
231 1 4.4584144868256 6.076540984459653 8.462670924674308 0 0 0
197 1 5.257895232426724 4.883205401501526 8.472094986585 0 0 0
353 1 7.224287727807967 6.1745396511514725 8.180501064602138 0 0 0
325 1 9.328123816043634 4.863897603840051 8.128909511392795 0 0 0
359 1 8.672315137634248 6.257413860976002 8.26994300722658 0 0 0
323 1 10.739825265398533 4.911145892325084 8.407066725249324 0 0 0
481 1 11.443259902349237 6.101812711241419 8.308687307971956 0 0 0
487 1 13.021499120518792 6.127052393234842 8.138405877051092 0 0 0
453 1 13.732974874784961 4.924152886234255 8.032236834659496 0 0 0
451 1 14.994721366347303 4.8568212485226905 8.233340789649654 0 0 0
97 1 15.78748933695558 5.997045895075623 7.918767398313888 -1 0 0
101 1 1.0363979983346923 7.23053495255447 8.130379779943251 0 0 0
7 1 0.3361637005571926 8.585728081111615 8.264856898199909 0 -1 0
99 1 2.3801615289487246 7.256587353262181 8.397242515991332 0 0 0
129 1 3.0111799812599593 8.523216549045422 8.441937689491851 0 -1 0
229 1 5.203974135204079 7.1926811294846145 8.338524895889602 0 0 0
227 1 6.511614956812786 7.29909827781652 8.612276817619309 0 0 0
135 1 4.375024253685149 8.382139609612754 8.505179818238425 0 -1 0
257 1 7.196330667492716 8.586419452078975 8.307027096795494 0 -1 0
263 1 8.56686635519617 8.535900041184124 8.520740679269446 0 -1 0
357 1 9.366845908777696 7.408218998558372 8.20747180217068 0 0 0
355 1 10.70328627807094 7.453786786446864 8.490094475331219 0 0 0
385 1 11.480013111146313 8.591010795941767 8.303306313027345 0 -1 0
391 1 12.938677308171533 8.576376079107394 8.2991882878844 0 -1 0
485 1 13.661441320263778 7.364492006969096 8.311858338341109 0 0 0
483 1 15.06564611651839 7.402394785868525 8.070430063053111 0 0 0
1 1 15.762364974605603 8.605994561477054 7.922393542165418 -1 -1 0
100 1 1.5862049700613048 1.412195344315814 10.441938192212872 0 1 0
98 1 0.8850494764297162 0.182909242842886 10.227108452634372 0 1 0
102 1 2.9196464518256406 1.4435878353099982 10.584034238524394 0 1 0
104 1 3.677181949976018 0.25404098004986764 10.291956671123394 0 1 0
228 1 5.806224406005546 1.3826376247955559 10.463873840776035 0 1 0
226 1 5.118517272500668 0.20298160545984642 10.476465082706454 0 1 0
230 1 7.136544767781267 1.33114359944906 10.899294258506847 0 1 0
232 1 7.881792379893235 9.790842144500036 10.606394661670748 0 0 0
136 1 7.978300864083953 2.53849377149051 10.79272382422928 0 0 0
356 1 10.013711954709079 1.3551414720874257 10.505451672133756 0 1 0
258 1 9.321554299105866 2.542619161405787 10.520009319436065 0 0 0
354 1 9.312021380855313 0.1148642374900411 10.574672094993879 0 1 0
358 1 11.389426150182418 1.354650600126369 10.749097099219696 0 1 0
360 1 12.05142519333637 0.21967277050135814 10.548997757253785 0 1 0
484 1 14.21687425139131 1.3524110842731354 10.36084771260562 0 1 0
482 1 13.495003813047845 0.13858970558755987 10.296583231814978 0 1 0
486 1 15.664377791993756 1.3577411837327555 9.994563342064804 0 1 0
488 1 16.301439045208 0.16489668403864866 10.397834544869966 0 1 0
2 1 0.9032347645622817 2.560966359188509 10.543149624290816 0 0 0
4 1 1.4885249760370376 3.7589121979378395 10.27533595479045 0 0 0
8 1 3.640466462100011 2.6566932055483488 10.286247748402717 0 0 0
6 1 2.9653485303552682 3.8715743676493113 10.358270005655113 0 0 0
130 1 5.0894803015605 2.659090837260465 10.493932871017705 0 0 0
132 1 5.704159099837042 3.843650308166468 10.501310849762383 0 0 0
134 1 7.17715378838169 3.74518376478295 10.807826554971097 0 0 0
260 1 10.028419275125085 3.704730202137622 10.247670724045044 0 0 0
264 1 12.053595535107267 2.583198917431262 10.588839931327866 0 0 0
262 1 11.412575711957052 3.7642568378137238 10.412032436457718 0 0 0
386 1 13.46772267904738 2.517775134555873 10.179914068573865 0 0 0
388 1 14.17937832691718 3.7194601154244173 10.022990223177414 0 0 0
392 1 16.47441706174343 2.5325650960785517 10.284132031965289 0 0 0
390 1 15.61572181323667 3.6104539996360727 10.16312920197631 0 0 0
34 1 0.8125166158683828 4.964233195619422 10.447615478396141 0 0 0
36 1 1.5403626130019208 6.115413406222689 10.397920614959528 0 0 0
40 1 3.6591814815734223 5.100915321222584 10.316102183085993 0 0 0
38 1 2.971147927088468 6.179266190280861 10.665231080391868 0 0 0
162 1 5.010616124315399 5.017139890492847 10.587657898993125 0 0 0
164 1 5.869233801820337 6.190295730242155 10.307078517467119 0 0 0
168 1 7.9772965747385 4.969424464390232 10.508733961301665 0 0 0
166 1 7.222935271255898 6.196426125622842 10.352999304138011 0 0 0
290 1 9.391835207104334 4.91142136413946 10.32767457887497 0 0 0
292 1 10.079327374931024 6.2231722121916535 10.15609690517848 0 0 0
296 1 12.015689809727135 4.98534948350804 10.2479536777051 0 0 0
294 1 11.468843184794032 6.208514230759104 10.343553605066038 0 0 0
418 1 13.521832845606287 4.952733005936122 10.145400373012281 0 0 0
420 1 14.26279450372022 6.193185245701086 10.472184405974652 0 0 0
424 1 16.273955462471548 4.934993123109352 10.215729411232932 0 0 0
422 1 15.618738017265098 6.212704584580498 10.160473926650575 0 0 0
66 1 0.8272583036382184 7.383886466314273 10.211739339109267 0 0 0
68 1 1.5647692029766456 8.588382323523142 10.67040505294785 0 0 0
72 1 3.719228741227563 7.429490755108984 10.625226251188113 0 0 0
70 1 3.0926253695966777 8.645405539848042 10.627299358228562 0 0 0
194 1 5.231451810553847 7.385607376224607 10.505674176073363 0 0 0
196 1 5.837921685565845 8.684792513720641 10.576436670034793 0 0 0
200 1 7.931854668231641 7.542833319397575 10.269188862589962 0 0 0
198 1 7.215168923390746 8.63354652376901 10.531341397438155 0 0 0
322 1 9.30199682466944 7.496276139955589 10.497780272042696 0 0 0
324 1 9.989417462429566 8.64999510221823 10.350967483619929 0 0 0
328 1 12.159447462959056 7.350530574237217 10.154165703772348 0 0 0
326 1 11.36861626323791 8.683712960420593 10.399254416923272 0 0 0
450 1 13.595323151007024 7.311402176228002 10.402294018405337 0 0 0
452 1 14.301549414858652 8.631282252106168 10.169701181480466 0 0 0
456 1 16.303263607710416 7.426859032920024 9.957829050163728 0 0 0
454 1 15.676043554578643 8.737638094758292 10.108841348931552 0 0 0
11 1 1.3363783783096512 1.4691296435753807 12.57894559738451 0 0 0
137 1 1.9877380609119217 0.2483163774636473 12.519982890797557 0 0 0
141 1 4.102222647895953 1.5478687052690863 12.351096025549275 0 0 0
143 1 3.4715329529484205 0.18727897853282874 12.50051360151783 0 0 0
139 1 5.4465205247226995 1.513367868996388 12.64081177818552 0 0 0
265 1 6.168381894966594 0.33412236302657417 12.557519788575615 0 0 0
271 1 7.523638151862042 0.17707368047162333 12.753987529629612 0 0 0
269 1 8.221962043146204 1.3096726049496432 12.713754006014117 0 0 0
144 1 6.94026850005572 1.805937835514528 14.723966563707597 0 0 0
267 1 9.759119215703269 1.4362516976959587 12.63374464659768 0 0 0
393 1 10.537860314046256 0.19030383714492938 12.424863610662559 0 0 0
399 1 11.946220111861171 0.2522858000145003 12.654110672753006 0 0 0
397 1 12.500982415393922 1.4585540041836347 12.532434837918597 0 0 0
395 1 13.960995630144334 1.449461220146194 12.443160032113902 0 0 0
9 1 14.707536313285386 0.2298486227203813 12.35384378254178 -1 0 0
492 1 13.21025663271908 0.8475181495249351 14.574618013935298 0 1 0
15 1 16.150818186006457 0.2664573679512833 11.83728419965309 -1 0 0
13 1 16.789945589186075 1.541992427536436 12.289831354715584 -1 0 0
43 1 1.2993146070804042 3.8729734653308547 12.358105805603044 0 0 0
169 1 1.945245471455773 2.6465710255727797 12.48534855975274 0 0 0
175 1 3.372872997491238 2.7024874004898525 12.721228594491896 0 0 0
173 1 4.0852697991303994 3.7769298323596048 12.299881965628071 0 0 0
297 1 6.179334729860485 2.5808016168488557 12.749698661341341 0 0 0
171 1 5.467428007758933 3.8632403643123787 12.693203370393833 0 0 0
303 1 7.492320879523766 2.594230310949048 12.823133364705217 0 0 0
176 1 6.96181126168413 4.116146387036337 14.689520178772025 0 0 0
301 1 8.136451909388311 3.885652113576623 12.668230289341338 0 0 0
299 1 9.563700319933421 3.838109153256833 12.299164235898086 0 0 0
425 1 10.356256798537249 2.6502341176748496 12.357878923840701 0 0 0
431 1 11.720819738317727 2.7591955820629037 12.713070192331031 0 0 0
429 1 12.424586934966177 3.867114668662543 12.426991296673762 0 0 0
304 1 11.080013635077934 4.4161581381081945 14.37585499804619 0 0 0
426 1 12.458701250119123 4.41621540625372 14.558689365991533 0 0 0
41 1 14.664516770861928 2.604792362302567 12.227838018129688 -1 0 0
427 1 13.951666684427895 3.926319242807651 12.242775005443693 0 0 0
45 1 16.75007723584036 3.943943893132018 12.60578019068619 -1 0 0
47 1 16.056289162468033 2.7251035862180304 12.422425326414617 -1 0 0
75 1 1.1701050876582952 6.319074314221677 12.457679521253187 0 0 0
201 1 2.0417638607691213 5.106838467453434 12.362951573941952 0 0 0
207 1 3.4569412100055192 5.06798725564182 12.406230340971891 0 0 0
205 1 3.997749288515715 6.2835443209344195 12.527359171691485 0 0 0
203 1 5.3949190990438725 6.379083147777626 12.392626940691978 0 0 0
329 1 6.091112397030846 5.083244917672828 12.566927853366943 0 0 0
335 1 7.455825156444931 5.195642789926059 12.625769038917902 0 0 0
333 1 8.10106475446047 6.304391494861729 12.302935586705107 0 0 0
331 1 9.708111260647485 6.341468996416414 12.357467690487354 0 0 0
457 1 10.37349479173121 5.074135576236834 12.34623813930894 0 0 0
463 1 11.679184435870669 5.006681792559516 12.323146656788662 0 0 0
461 1 12.51091791077784 6.2921796427549905 12.276045703880088 0 0 0
336 1 11.090481093012286 6.743665382074696 14.282940627099393 0 0 0
428 1 13.13599382736349 5.605895452173944 14.79370835331407 0 0 0
459 1 13.93237151364976 6.232648460484069 12.626448096164479 0 0 0
73 1 14.692256951950045 5.069373547350319 12.216317992510405 -1 0 0
79 1 16.045169335437286 5.049140161912332 12.398187060884336 -1 0 0
77 1 16.709561210623743 6.2262043132139695 12.447603488766326 -1 0 0
107 1 1.2346961636747535 8.758786960417655 12.073320214572712 0 0 0
233 1 1.8589519139855195 7.5078240362581 12.581993948640545 0 0 0
239 1 3.2543327325779976 7.464383383938373 12.848137941657377 0 0 0
237 1 4.073517274469902 8.780072456026303 12.522697794845248 0 0 0
235 1 5.412884405195209 8.711731533820046 12.754764404783991 0 0 0
361 1 6.070767238858223 7.60310699532648 12.443131969101314 0 0 0
367 1 7.465540429556894 7.586698981203702 12.343786158331042 0 0 0
365 1 8.293484657090087 8.675265668525341 12.469478750421061 0 0 0
489 1 10.513988162918155 7.464669544002371 12.297478947693188 0 0 0
363 1 9.785147456366923 8.65361461503872 12.454601222644415 0 0 0
495 1 11.887576967468513 7.532623382893903 12.27811810147134 0 0 0
493 1 12.600177610611688 8.763248142064906 12.414090273916743 0 0 0
368 1 11.166317959817535 9.159621216144718 14.531817800914258 0 0 0
460 1 13.335319503869586 7.96479487480786 14.634219891282672 0 0 0
105 1 14.714874273027153 7.404823777824591 12.52869633719638 -1 0 0
491 1 14.12449690635117 8.752458641939388 12.664913779075366 0 0 0
462 1 14.647662437023698 8.03598112996941 14.694678706294692 0 0 0
109 1 16.815327471341515 8.709246871475123 12.670582847271545 -1 0 0
111 1 16.098585753532788 7.408016393454234 12.455062562355153 -1 0 0
106 1 16.80587068551229 9.16281823898986 14.199337834332027 -1 0 0
496 1 15.316876710903507 9.319540104672097 14.591433053014002 0 0 0
108 1 0.5611982666846531 0.6686627769184519 14.586612420678275 0 1 0
110 1 1.9672734614417433 0.5764709647560156 14.617693262811741 0 1 0
49 1 0.9399060345891496 1.871279405515089 16.73759336625466 0 0 0
138 1 4.089087524345439 1.803058490351902 14.561104192239654 0 0 0
16 1 2.6693325486553396 1.743782268307687 14.480643025090252 0 0 0
21 1 2.9913415547822413 0.5864130483688677 16.444865494382896 0 0 0
236 1 4.916266533884784 0.5896607896271635 14.563354046632067 0 1 0
238 1 6.279439106038431 0.6097071442579808 14.650566512384566 0 1 0
266 1 8.359569906837581 1.8942183247967408 14.820622920529242 0 0 0
149 1 7.352326829741741 0.5921611139455942 16.56395384582062 0 0 0
183 1 6.645552645762037 1.6772790981017005 16.808688148697183 0 0 0
181 1 7.265702427070938 2.9057799106089894 16.860377591770305 0 0 0
366 1 10.470991890996267 0.6762506409519066 14.54641784342086 0 1 0
305 1 9.426076130568008 1.808371273396591 16.70010113469168 0 0 0
147 1 8.662516198523429 0.5397397129560839 16.849881754784477 0 0 0
364 1 9.05561196670185 0.6311424631486794 14.734821340906525 0 1 0
272 1 11.185855381170274 1.9614815391012244 14.664980654778923 0 0 0
394 1 12.538312737346894 1.9738792176803819 14.575566980632924 0 0 0
311 1 10.807646518914005 1.7877832512186613 16.806696648733656 0 0 0
277 1 11.426684920935228 0.5886430236924395 16.576557951065833 0 0 0
494 1 14.548577656866847 0.8198368308684613 14.398414693249364 0 1 0
433 1 13.719871953016783 1.8645459156006368 16.334831848389236 0 0 0
275 1 12.843605729555666 0.6481551981223054 16.62952585003554 0 0 0
400 1 15.320366980171395 1.9664428608543132 14.346678483356508 0 0 0
10 1 16.667198102720764 1.8933708762922254 14.650406005956711 -1 0 0
439 1 15.043668089457107 1.8814711816046659 16.58829205220033 0 0 0
405 1 15.711351922979826 0.7481454464627899 16.442599662778775 0 0 0
12 1 0.6144156554121484 3.065183517029205 14.292774938247984 0 0 0
14 1 1.9720101900462694 3.154438600961478 14.510933737738544 0 0 0
81 1 1.0328391912423416 4.212254701933582 16.539703478776886 0 0 0
435 1 0.2467969414526553 3.094579898092305 16.52217738339759 1 0 0
48 1 2.7058336266984107 4.245714153646585 14.553018265438656 0 0 0
170 1 4.128994278092234 4.262213095110059 14.501708245772779 0 0 0
53 1 3.191059740620529 2.875285541030584 16.49614779188296 0 0 0
87 1 2.4422763804061423 4.127883429721684 16.80891537043889 0 0 0
140 1 4.7475790842023455 3.013034091776801 14.463522116499547 0 0 0
209 1 5.281090192720696 4.163025750110892 16.706600376672124 0 0 0
142 1 6.156121444864624 3.041906951050352 14.925112257046658 0 0 0
298 1 8.341533741474446 4.254519989088056 14.919239146345824 0 0 0
215 1 6.6679424860030005 4.209726031927372 16.813345396069614 0 0 0
270 1 10.372545219624325 3.148299498851098 14.406457595196589 0 0 0
268 1 9.018889701683037 3.0863023418392315 14.65935729124507 0 0 0
337 1 9.547300972655558 4.2864104637958 16.600808884174278 0 0 0
179 1 8.764779665736905 2.9770353834953767 16.84981556141338 0 0 0
309 1 11.612721990049112 2.9850981751805716 16.74020908769444 0 0 0
398 1 14.640392009162763 3.1123930280847505 14.60885644619456 0 0 0
396 1 13.277532062070286 3.138322848929907 14.405303220590598 0 0 0
307 1 12.99217866758699 3.020172879258106 16.56449537269218 0 0 0
465 1 13.546819380088493 4.251270137028421 16.53518953552176 0 0 0
432 1 15.36790001814389 4.324413718716012 14.268698462752154 0 0 0
42 1 16.77882221513975 4.232719174904328 14.675246616105634 -1 0 0
471 1 14.965826279060087 4.189493313104413 16.71204142966058 0 0 0
46 1 2.1333096380111116 5.5517947069870734 14.557447388772651 0 0 0
44 1 0.5734899700523506 5.493385727362358 14.448417360213917 0 0 0
113 1 0.9802181888226679 6.571480326741689 16.549677920023587 0 0 0
467 1 0.22268087579730633 5.417305498395962 16.512633344321564 1 0 0
80 1 2.891340937971952 6.6960930328585295 14.829538666099733 0 0 0
202 1 4.211421547054097 6.736223281801197 14.814892852345022 0 0 0
172 1 4.791936338224015 5.495610154995064 14.52144264394905 0 0 0
174 1 6.21472459985638 5.46958176639429 14.701222332508024 0 0 0
330 1 8.300976956547526 6.725326701306145 14.358709121468152 0 0 0
208 1 6.885908213108224 6.749234444995872 14.655582809118254 0 0 0
213 1 7.347939118762489 5.432598235136802 16.6460345930199 0 0 0
247 1 6.523237177236456 6.675909818633136 16.75739376408633 0 0 0
300 1 8.895004227743165 5.493149677932707 14.673718864707531 0 0 0
302 1 10.370426328794856 5.521163937144444 14.406667621017977 0 0 0
211 1 8.728802806198512 5.466533728465333 16.84120994946952 0 0 0
369 1 9.282815804533543 6.668622735367125 16.63725709298901 0 0 0
458 1 12.568846899820857 6.701520470168167 14.514915067199066 0 0 0
341 1 11.497562503971126 5.467899165329865 16.599661710862826 0 0 0
375 1 10.722832711394616 6.689104211062988 16.616082354528984 0 0 0
430 1 14.617146872593333 5.4233182157318245 14.59775447464369 0 0 0
339 1 12.89915946401814 5.589366660545683 16.910468934672828 0 0 0
497 1 13.547570220575443 6.7514676181837965 16.722205537226593 0 0 0
464 1 15.246469125954233 6.761076033933212 14.568055212417384 0 0 0
74 1 16.71860415720387 6.768644410801511 14.499794779916876 -1 0 0
469 1 15.704152693223326 5.392489805150043 16.47802532281339 0 0 0
503 1 14.907713743680786 6.733168879243626 16.73408322658632 0 0 0
76 1 0.6452522062272699 7.952856534154287 14.484741289642717 0 0 0
78 1 2.1491223799721815 7.940545468822229 14.776029824828143 0 0 0
499 1 0.16865145095463518 7.798770032319702 16.621373706091852 1 0 0
17 1 0.97259734908881 9.12808217786473 16.401392199145157 0 -1 0
112 1 2.695258819050426 9.06161173168212 14.654497950416294 0 0 0
234 1 4.138350338720814 9.076573016459953 14.583051711808631 0 0 0
117 1 3.007041811680204 7.883674979558207 16.90733501821002 0 0 0
23 1 2.3475928013739864 9.071785787450903 16.830995754595687 0 -1 0
206 1 6.230434029591116 7.8948556654254265 14.601547989100464 0 0 0
204 1 4.885557708411682 7.859686553247054 14.757692907895954 0 0 0
145 1 4.98976320495077 9.155546102648874 16.777735676265422 0 -1 0
115 1 4.371725923497789 7.808769316709497 16.96780486126975 0 0 0
240 1 6.885615363941542 9.098070879766588 14.61021386170894 0 0 0
362 1 8.352453846515587 9.190746329768583 14.68756682571992 0 0 0
245 1 7.13205965734202 7.818156927433344 16.500592678155513 0 0 0
151 1 6.436830544390058 9.103406538163163 16.730198968363833 0 -1 0
334 1 10.452652243776539 7.917630324254815 14.461907455460583 0 0 0
332 1 9.109660228785131 7.986192041293381 14.655542483307714 0 0 0
273 1 9.351099648824654 8.972794302772808 16.57253578740866 0 -1 0
243 1 8.484390912827871 7.724772664148155 16.794610227510383 0 0 0
490 1 12.52138340660559 9.31082406024893 14.5739035696651 0 0 0
373 1 11.45598264082206 7.91229791685905 16.477350396795167 0 0 0
279 1 10.74863583359576 9.0548102342734 16.589578460383592 0 -1 0
371 1 12.840636800555696 7.964656113737816 16.68626024901199 0 0 0
401 1 13.611615781518553 9.162173477810047 16.554912429022927 0 -1 0
501 1 15.6835368126455 7.851389069763907 16.62825485834306 0 0 0
407 1 15.018450852299319 9.06212890613785 16.75195035423991 0 -1 0
403 1 0.13974225882205601 0.6862357146809274 16.69093245445149 1 0 0
18 1 0.9037208320727776 1.4861447384010613 18.851394383711757 0 0 0
116 1 1.6599695787803193 0.3112136451827878 18.839341909715543 0 1 0
55 1 2.4356660577008538 1.763450182105336 16.73892969716269 0 0 0
24 1 3.6996689019529074 1.4859824053226467 18.7752042640276 0 0 0
118 1 3.025815093945689 0.22214829778419723 18.92784509538679 0 1 0
177 1 5.199626397781649 1.7420145838812024 16.426513170073477 0 0 0
19 1 4.357729396072577 0.6177815008877217 16.6551331248602 0 0 0
146 1 5.061528934110046 1.482354116541767 18.991445617792216 0 0 0
244 1 5.751087457208241 0.32740850731492077 18.812760578572053 0 1 0
152 1 7.904792471430815 1.454035226021181 18.65732636871055 0 0 0
246 1 7.160408336987342 0.33023106108132816 18.662069990846923 0 1 0
274 1 9.23177895841756 1.448355743854962 18.86281882924 0 0 0
372 1 10.058551591558897 0.24271760332590459 18.84199210499172 0 1 0
280 1 12.106430831566215 1.41759530935261 18.685167111295982 0 0 0
374 1 11.450482280670839 0.226923370109523 18.8239973627573 0 1 0
402 1 13.426480611323933 1.449616091534588 18.70472004344638 0 0 0
500 1 14.144241838923925 0.28074382138787085 18.402741846682062 0 1 0
408 1 16.317714340657698 1.5133732928907246 18.702807997803976 0 0 0
502 1 15.576079654306477 0.30481742746795315 18.510514629871768 0 1 0
20 1 1.5248847640255645 2.6395560275839083 18.67684981260947 0 0 0
50 1 0.7064033469782078 3.8410549931385116 18.83045091326191 0 0 0
22 1 2.8779476309763603 2.721148726400464 18.742820468435212 0 0 0
56 1 3.6132281858229316 4.045507298065704 18.786585701491873 0 0 0
51 1 4.644279609498932 3.024030159127501 16.659052352775824 0 0 0
148 1 5.606475111443785 2.720999816095308 18.68376833217514 0 0 0
178 1 4.926924637914496 3.9104885329306285 18.86929933973767 0 0 0
150 1 7.009509481393617 2.634902665587559 18.921885841049363 0 0 0
184 1 7.8082250180821156 3.9464605667336765 18.5885308369511 0 0 0
276 1 10.09904646885412 2.6422383096802218 18.576436198572697 0 0 0
306 1 9.213491219487452 3.9546155802610445 18.868122469049403 0 0 0
343 1 10.88598062566503 4.193690905086541 16.863530124266195 0 0 0
278 1 11.401317231029783 2.5357701467272236 18.91600464698805 0 0 0
312 1 12.086222700822281 3.714103379842605 18.702709283388298 0 0 0
404 1 14.13864932564797 2.629863755831788 18.586829027345793 0 0 0
434 1 13.468252449028187 3.8831341336127374 18.66435592689887 0 0 0
437 1 15.639507440318248 3.077902302665134 16.510416736674834 0 0 0
406 1 15.556735169802035 2.69036873313793 18.615221444266954 0 0 0
440 1 16.18222121242255 3.896365958785678 18.568929007803973 0 0 0
52 1 1.433626265781163 5.103041666020848 18.723663282290453 0 0 0
82 1 0.7539960394804113 6.407700828920892 18.66841886408687 0 0 0
85 1 3.0233309425358037 5.349224850118262 16.78781624237361 0 0 0
119 1 2.29259544578765 6.572364483735497 16.990510554209145 0 0 0
54 1 2.8958542666460234 5.208424523897912 18.87088348640418 0 0 0
88 1 3.6040209178355953 6.420508424990829 18.69973691558063 0 0 0
83 1 4.492377621009458 5.444119403491383 16.58298071875536 0 0 0
241 1 5.117355017753045 6.659803702567311 16.674542685949326 0 0 0
180 1 5.714807967283997 5.171942957176888 18.84610601816875 0 0 0
210 1 4.997617764458716 6.446436499826289 18.902772722504395 0 0 0
182 1 7.184287061482868 5.129149911119964 18.834134890079405 0 0 0
216 1 7.91535756144934 6.469472020360317 18.779484562151836 0 0 0
308 1 9.988905637331099 5.112617050711595 18.637700653594855 0 0 0
338 1 9.299320084258229 6.387296108118833 18.908810582890112 0 0 0
310 1 11.373929798551014 5.096165344580163 18.7786952128075 0 0 0
344 1 12.032006522505792 6.399437690476449 18.709273263272934 0 0 0
436 1 14.086799772246303 5.121367815209331 18.606573998566237 0 0 0
466 1 13.434631035651899 6.35223517805764 18.791585756343615 0 0 0
438 1 15.548934471510405 5.107383828760498 18.55506156991966 0 0 0
472 1 16.207946639219163 6.397361736277473 18.45699590068504 0 0 0
84 1 1.5047688404840707 7.603574846012126 18.73611174142918 0 0 0
114 1 0.6997710896196354 8.743299785946203 18.43008109672492 0 0 0
86 1 2.9076645310334603 7.558771586794528 18.979076896631504 0 0 0
120 1 3.7835091252038358 8.739868752836262 18.762106843615044 0 0 0
212 1 5.78687744977175 7.663913591947779 18.61396974546014 0 0 0
242 1 5.130854871814037 8.879124210049518 19.034599626215734 0 0 0
214 1 7.192510844991646 7.552654789864971 18.769378572086474 0 0 0
248 1 7.882307610982345 8.783703086757239 18.79525773899685 0 0 0
340 1 9.956374046019468 7.504814253929387 18.748087700936303 0 0 0
370 1 9.31127654681064 8.819050710693045 18.952519107912284 0 0 0
342 1 11.353026008592842 7.524473299938349 18.676214901694486 0 0 0
376 1 12.064967434454523 8.731921282340846 18.54279473765404 0 0 0
468 1 14.110085610107184 7.551309392406346 18.580175521178084 0 0 0
498 1 13.503502321918548 8.741533256028013 18.71361864064977 0 0 0
470 1 15.59864896010909 7.62940410055551 18.676892252989283 0 0 0
504 1 16.21706691810587 8.723593277151664 18.520716290269846 0 0 0
89 1 2.1754779132051727 1.0475235847101345 20.76446494251691 0 0 0
475 1 1.4842716897132224 2.3402748379347713 20.756878598302915 1 0 0
95 1 3.582310691695715 1.0760279087243343 20.91623751374594 0 0 0
61 1 4.334663720040785 9.695454878593134 20.929491692393903 0 -1 0
217 1 6.331310967976772 1.1835861996085109 20.687441009171792 0 0 0
59 1 5.629953673893545 9.740559222295506 20.98614486679852 0 -1 0
223 1 7.793105890864603 1.2006134149775942 20.81228304413471 0 0 0
221 1 8.472425141542647 2.3658102871490314 20.890763846512712 0 0 0
345 1 10.655063351118189 1.1507462508222506 20.719419677442936 0 0 0
219 1 9.862848018531954 2.332208252949828 20.976290467511063 0 0 0
351 1 11.997181167911178 1.2168439743703265 20.827446073822568 0 0 0
349 1 12.637234569190428 2.3250612576547605 20.711368770401595 0 0 0
473 1 14.910443273006358 1.1194283833962997 20.377206037492243 0 0 0
347 1 14.151769651786875 2.2519885231720456 20.625205691772642 0 0 0
479 1 16.238050614108808 1.1447898387142597 20.803653299781992 0 0 0
121 1 2.213051338930682 3.530556233245119 20.848247550668994 0 0 0
93 1 4.244519502167699 2.401017512046152 20.89280626138879 0 0 0
127 1 3.6215721425010456 3.607021832421841 20.822408485099302 0 0 0
91 1 5.700042660070511 2.3596213211570083 20.85078214936388 0 0 0
249 1 6.343752989922158 3.6246580085642672 20.793446667326794 0 0 0
123 1 5.587660334169495 4.962728762432109 20.90313374129336 0 0 0
255 1 7.754640636927743 3.661983217087668 20.702884148294395 0 0 0
253 1 8.391172007033818 4.748947132978012 20.718932121358723 0 0 0
377 1 10.575607814223666 3.549775211707605 20.8883184321912 0 0 0
383 1 12.006390178173875 3.5437414099853526 20.785575792840078 0 0 0
505 1 14.929020014119862 3.6487788446716802 20.449555060731257 0 0 0
477 1 0.10062813386620917 2.374949075678124 20.83059015871777 1 0 0
511 1 16.26054189143825 3.6420954383491235 20.76349855198596 0 0 0
509 1 16.98130422854454 4.798587308218807 20.69380716780744 0 0 0
507 1 1.4926014483811822 4.851712373468498 20.786862640517235 1 0 0
25 1 2.199950255288778 6.046151754903384 20.808256803414068 0 -1 0
411 1 1.5496356243479652 7.2199220753239635 20.80721198565704 1 -1 0
125 1 4.230575908042397 4.871043924000005 20.84703904958736 0 0 0
31 1 3.5660331329288653 6.065537637359098 20.818601194909093 0 -1 0
153 1 6.345012004710933 6.0770400405422675 20.816392926465305 0 -1 0
159 1 7.744155324877561 5.9974714258532025 20.86977102364948 0 -1 0
251 1 9.929778476250666 4.657954848716978 20.839239647525552 0 0 0
281 1 10.496586529592182 5.937209498536446 20.678274302161498 0 -1 0
155 1 9.883585371090536 7.126873331888989 20.8570310709381 0 -1 0
381 1 12.729377050378798 4.75494875931571 20.67036502513715 0 0 0
287 1 11.951981631999656 6.0060209688016775 20.766789914312763 0 -1 0
285 1 12.681535440902433 7.2669230542874805 20.607169407035045 0 -1 0
379 1 14.173780658725413 4.804959653778917 20.61826348277986 0 0 0
409 1 14.909823767296164 6.031681510491441 20.538369123576246 0 -1 0
415 1 16.292690751765928 5.970672616336018 20.675763250909817 0 -1 0
413 1 16.94109382298552 7.1034846110827905 20.773799115762642 0 -1 0
443 1 1.3843176057793278 9.58408814442664 20.86439752861301 1 -1 0
57 1 2.228751564879059 8.393182151655758 20.77842035084821 0 -1 0
29 1 4.233985314357332 7.173950236672904 20.729588601471384 0 -1 0
63 1 3.608732732854435 8.419141511591071 21.03675884090691 0 -1 0
27 1 5.684506163262065 7.2254132163369755 20.775654027629116 0 -1 0
185 1 6.453291692700725 8.445574870257971 20.825662551949208 0 -1 0
189 1 8.519440156176405 9.623040032387177 20.863830473329692 0 -1 0
191 1 7.771098748187452 8.467088910347666 20.98679368561875 0 -1 0
157 1 8.476585225003626 7.1449031711962965 20.7429785626954 0 -1 0
187 1 9.945636585377356 9.59707096640058 20.978602387002823 0 -1 0
313 1 10.641090930167834 8.45676927171887 20.925023529174833 0 -1 0
317 1 12.708938496794998 9.635324880313032 20.679239658126843 0 -1 0
319 1 11.999816582403994 8.466533422984043 20.68050884874851 0 -1 0
315 1 14.137750230089573 9.613436324463429 20.593230341845473 0 -1 0
283 1 14.150969298383117 7.1441211527219775 20.679408069164868 0 -1 0
441 1 14.896965128265805 8.415801030825136 20.582818663858014 0 -1 0
445 1 16.978385019141733 9.765230550212724 20.547002444318824 0 -1 0
447 1 16.206534998382622 8.480189034335417 20.707710368210996 0 -1 0
30 1 1.6890594496603624 1.2769471308923706 22.95151526482259 0 0 0
28 1 0.24358743216329326 1.2030664509772009 22.74452673656294 0 0 0
186 1 3.836423790724639 2.47025402183096 23.05185534877171 0 0 0
64 1 2.4099669773344456 2.4390840037393953 22.972933116042576 0 0 0
156 1 4.4904272143030335 1.262140686792168 23.00083623032786 0 0 0
158 1 5.936570411102261 1.2210253392683847 22.990637018139786 0 0 0
192 1 6.697441853235899 2.295752475203531 22.95652060574567 0 0 0
314 1 8.053426955712695 2.3765710415854406 22.909919396067536 0 0 0
284 1 8.805171767565563 1.155075129523346 22.832846971322006 0 0 0
286 1 10.261453841745162 1.235529538032175 23.132397843455657 0 0 0
442 1 12.345920854328654 2.3231823713434494 22.78866490654795 0 0 0
320 1 10.872766751524095 2.4592599367875865 22.954441334121974 0 0 0
412 1 13.07414695004056 1.2124103588301804 22.653170149483437 0 0 0
414 1 14.4651466144562 1.0729166083119122 22.410002241161372 0 0 0
58 1 16.36976168699287 2.4629531657380364 22.816947089265476 -1 0 0
448 1 15.059928772731702 2.4680295271250383 22.56084605797747 0 0 0
62 1 1.574485403195454 3.6859463453447576 22.935864880678686 0 0 0
60 1 0.20573372920586 3.6739019626801497 22.675576003236635 0 0 0
96 1 2.3020549814801554 4.818881243348606 22.790051498443393 0 0 0
218 1 3.7285369606397114 4.7795657844119415 22.91076081302029 0 0 0
188 1 4.420275069761984 3.644710667584752 22.774026645318195 0 0 0
190 1 5.855611017362869 3.6299230771947966 22.831179706033588 0 0 0
224 1 6.5996034580043785 4.874313618957063 22.891028819996315 0 0 0
346 1 7.949403171548078 4.822067896182758 23.02552545113967 0 0 0
316 1 8.757690417210748 3.6318285018624934 22.806067579273517 0 0 0
318 1 10.030502314084524 3.562928024880213 23.190434149078687 0 0 0
352 1 10.823888304782104 4.693941976330421 22.89672512624451 0 0 0
474 1 12.22002978801716 4.761604439542885 22.752225943274667 0 0 0
444 1 12.991034201160106 3.6292204580615626 22.671064204623093 0 0 0
446 1 14.379593957842424 3.6842796753191136 22.659168170078775 0 0 0
480 1 15.09254852379394 4.871561019713573 22.66927567090992 0 0 0
90 1 16.466584666081673 4.918989752699996 22.79030558134008 -1 0 0
94 1 1.6666627868729316 6.05597169784733 22.9328517139165 0 0 0
92 1 0.2881392192202882 6.091145030511152 22.65577325394947 0 0 0
128 1 2.4028350389109203 7.234319033415338 22.878950637934572 0 0 0
250 1 3.82562467827306 7.271404189974626 22.950694346050494 0 0 0
220 1 4.484424445603563 6.0197455689871635 22.764601716628484 0 0 0
222 1 5.888241225360278 6.075947030349209 22.891341766206438 0 0 0
378 1 8.072279865307257 7.3006167431101465 22.77906051461104 0 0 0
256 1 6.743273229799454 7.370444939542808 22.82637483777603 0 0 0
348 1 8.712423498830265 5.953687559266193 22.78732310986082 0 0 0
350 1 10.189644885977797 5.912600530471562 22.91750468317671 0 0 0
384 1 10.863862633767638 7.094964185850312 22.93016799045744 0 0 0
506 1 12.311563474570477 7.281151106784476 22.958158607731626 0 0 0
476 1 12.957830553371366 6.018049678599335 22.612433251441757 0 0 0
478 1 14.384107108414401 6.115546935807962 22.82223861827175 0 0 0
512 1 15.084605422816944 7.373912063263395 22.584828744847425 0 0 0
122 1 16.5405778482412 7.3701053523729145 22.83608832362605 -1 0 0
126 1 1.7408827805840228 8.527804790318534 23.143155192450585 0 0 0
124 1 0.3171413745941539 8.561846042936189 22.628621426438038 0 0 0
32 1 2.395943280426208 0.07437270329263868 23.136475969606167 0 0 0
154 1 3.7889575658077774 9.762808732316053 23.230841298008535 0 -1 0
252 1 4.552559683560888 8.481757220839842 22.929355828943198 0 0 0
254 1 6.069909697350568 8.468849856226981 23.027768410567038 0 0 0
160 1 6.735405004548539 9.674956597064742 22.954775950544754 0 -1 0
282 1 8.15905086460695 9.6365864912325 23.088020244238674 0 -1 0
380 1 8.928080569281644 8.562989572209439 22.925185480799527 0 0 0
382 1 10.193424596634491 8.369411820404231 23.156187098382873 0 0 0
288 1 10.971603691601349 9.644078107533115 23.138715669462414 0 -1 0
410 1 12.390997867539257 9.66561900499487 22.89519012173198 0 -1 0
508 1 13.063605780668247 8.522923931515901 22.77346523347494 0 0 0
510 1 14.405077170907255 8.561280974349181 22.641004297488628 0 0 0
416 1 15.096655960130626 9.681019544289299 22.666801638400674 0 -1 0
26 1 16.415330292827274 9.69717087557165 22.87808135722909 -1 -1 0

Velocities

39 -1.6874630001921374 17.078433725253632 5.944353191964876
5 1.9801620750505065 35.94190506991079 -4.2647450899724015
3 13.108607060080995 -1.1897980809988953 20.401072843220845
161 -14.723912839728735 7.940101817146837 -11.63246453526181
167 -14.022067012101404 3.7381577990831723 -2.4805955034453033
133 -9.66366264727901 -6.906636881686597 -23.209494376303873
131 5.556304921975069 28.764685815375017 -5.022192895597911
289 -5.302685966200475 -8.08624431011313 -0.1624558805934077
295 -24.461533715797298 -25.916809229071735 -12.465205664740283
261 7.931891479236548 29.39488070188941 4.853409951471669
259 10.812659686875413 -22.51929994182717 -10.45187119774914
417 -18.140875875967602 -0.041914052630152375 3.9646707734085984
423 -19.992271535474586 -8.38816808577005 -0.338561486914067
389 -4.950879245288854 -2.0856048273575793 -8.35514077453725
33 23.490332217237697 -5.850213502427822 18.949479871546913
387 34.250628840507275 -4.77955623284933 -9.91744407494387
37 6.112470616745043 5.4088057194456 23.423257593979713
71 7.1357120659087085 44.323446692575125 18.654910135672388
35 26.406874843990007 14.494606303915221 -6.719891934505473
193 -0.9562849155314868 14.920126630312579 -3.170340973965851
199 6.166444039147356 9.19815364135252 -9.479750517213816
165 -5.4593635328800785 3.6641590347868647 6.250715902852009
163 -6.393699364928989 -3.6363910989499884 -27.594449322206067
321 7.705914421447411 10.764849243561066 -2.7191657397914897
293 7.153649972719455 -11.682383486615455 -10.502922060389286
327 -3.3756231331429767 8.303910042866187 -14.908509635318635
291 15.034231685857085 3.494984502417353 1.6613597208319266
449 10.110268661716201 -2.232271151145052 -34.770084946083315
421 -2.938381054158547 15.059448828040358 -3.0851675579295494
455 -3.0592473559176896 -1.4506362832400939 -11.623737667882363
419 5.470998767403489 -17.57720097605604 4.933138699964587
65 -24.23375419805056 10.858965692251942 21.291843994033204
69 -10.600768831103382 4.506429478189681 2.555767211914324
103 22.925674736071883 -4.364004362208094 -3.4997194024162
67 15.401202674569666 18.744177437300465 0.47762769929495585
225 21.034678038347508 -5.97586084105626 3.3132660703411005
195 -30.79303107891558 9.037254729440393 13.323667221987314
231 8.31868011428491 -0.9220049527544637 -23.344063694823376
197 22.75894086499385 -2.5614971437592735 -29.783222727653794
353 3.8544603063989684 -10.985992233287094 -8.465802488892892
325 2.2749452717508207 29.54587654776375 -9.899020284180063
359 -0.3341511773824497 -6.397011466893562 11.949798358125742
323 -6.7529002374095 -12.891413045136748 -5.882044282192352
481 10.58150911678415 18.33526304232746 4.324514940010362
487 -23.965808748464305 -16.13924926890734 11.788911574438716
453 -11.356067069992577 -1.5757368841675927 4.166285513212799
451 0.963378580377387 -7.864415669218664 -3.1955222961801275
97 -4.7154969001134495 14.642843752235441 3.211054242162051
101 1.7985895041099627 14.14294061883272 -25.7377156673109
7 -2.543359115072057 20.62431404861662 -2.3983290146745824
99 -31.232564651649 12.247636723831382 7.550894076777178
129 -10.204577226152145 -26.654843992522295 2.475387792042437
229 -3.501727742760551 1.80091293253676 -3.6784464295952386
227 3.757045637690086 2.2572384620676953 12.099319326709917
135 17.99951858280739 8.842168959072508 13.33282660282093
257 19.04745405938614 -4.691622306136969 4.202729315984742
263 -6.435560680831383 21.540058070407895 -4.555485624980917
357 19.30841372616463 12.990049837532501 -10.123408685860694
355 2.5278555365199544 -23.031279969883837 15.836421191291047
385 21.284319860700002 -9.981581202567254 -10.173072162744559
391 11.251272926934202 -18.075814856380614 -11.968297576855427
485 -13.079687450080813 7.414152332824213 4.741615988725557
483 -22.672232665198024 11.346160960521543 -24.01710410982895
1 -24.104913882984228 9.880436554462362 -27.884486051900613
100 14.163886874168524 10.585256458233733 -8.076347255349134
98 10.624949609448718 -1.7542463017236343 -8.691914049342412
102 7.22501149513832 -8.521386979929053 7.534572792655259
104 -8.194604493517328 -8.702973896709517 -17.218790913948467
228 -1.015435230701116 14.612015753872143 -12.725226220645064
226 -10.07295103220988 -2.369502247483109 4.78065425620593
230 10.411199580339652 -6.665570937175027 -5.004607504696449
232 2.32401465295067 8.126639520430636 -24.17210389622275
136 -5.028109853853584 -1.4725715300704758 -0.1269840746162134
356 4.244163195454281 8.877167388063922 1.668978827666388
258 19.691743548579492 12.177437153256337 5.584342730302401
354 -13.67488940499267 1.8781571856247428 8.935741468066908
358 -23.770532366345105 6.379390843242509 28.725000754225327
360 -33.203974586453405 4.1726245671249265 22.960546703888436
484 -20.088246488937298 -8.984841478869894 -10.068445715740339
482 -1.8377447574830834 17.97508261409608 30.852660554378105
486 9.830512541837308 21.23296874438985 -4.127807354343575
488 21.038544948325338 5.9927953357939785 -25.15187721659708
2 8.972391963114019 11.249835454424414 -2.180650886171159
4 10.199148193669373 17.28391522101868 5.3327660835613955
8 19.254096584943646 11.441184244279746 -5.154226296483476
6 3.6098570571665176 -8.198027014104458 -1.9570416419448782
130 -15.91725725706582 -7.293501779296699 0.15194757690913793
132 -9.336857712969973 -3.1963932956133974 -26.364286669530614
134 -4.950898306828965 -31.760390294655497 6.707377760377695
260 5.434716076733074 -19.62658022375979 11.411419751873407
264 3.0471121496182216 -29.854698657198636 -6.170781060532183
262 4.099982600380966 -15.07289362509635 11.871431012447687
386 -15.729026419054215 6.391237405249807 -11.301016616296147
388 -11.5638011997525 8.27039419751952 14.085908056954496
392 -18.330232155037304 -3.955193697750767 -14.60855946057742
390 3.941338758094869 -8.066532080088708 -4.344237030843553
34 -8.282763610305931 15.315166098874831 -4.046058648433395
36 -13.555056835293126 -5.227092440134077 4.656361586850507
40 4.819545063053546 -22.828171299284644 15.574392878638326
38 -25.38379791606196 0.5211259431068028 -11.699979207556506
162 17.28656687394168 -10.130930218033992 -31.156103909345312
164 2.8540438405775483 -8.489039197175101 -4.193916170590237
168 -10.204826470330882 2.1156678421436492 11.830326933272584
166 8.026743410175525 23.896212897749365 -6.316654917237047
290 -6.112670968433852 5.131960445003355 -0.7103596267822891
292 13.451757378930802 30.513053697415216 -28.841632047700635
296 13.392017643601791 -2.2551053343359246 -6.696607715257356
294 -2.597333421773376 -7.5819610171827705 -21.148013276757364
418 -15.831329593774896 -6.042923706497454 1.2826777130078386
420 10.583070746338736 22.791885026737535 -11.136677393752851
424 -7.135965531122121 -12.88597330576948 9.155994753677303
422 -11.521575682913062 -16.905973516755203 -16.110712961006268
66 -22.892023294192757 -15.23571608331518 1.2826850951998878
68 -12.482062819814379 19.631406736710613 8.885783322491397
72 -9.926626570709166 -5.129504164932394 -9.234800555208146
70 -0.8652054895142413 18.85832271405937 2.72366476904814
194 -8.016648286019564 11.767891022833401 1.9079751943568843
196 -11.891013952797971 6.132074569439369 10.363153028510455
200 -18.124597543795637 25.64376827513877 8.451790575627125
198 -2.7788576054276515 13.74213855378239 5.905618281374756
322 27.223684776938534 -28.719866738981906 -12.01041461165611
324 -15.95039779468417 -4.882907840056921 2.244898435606095
328 -13.744258437453313 18.56970357587168 10.546390623368147
326 -4.605647267883643 -12.905402125698094 17.825295787828335
450 18.587098359614963 5.965806155909289 -9.830687951423643
452 -13.958284113666203 -13.968689252061894 3.330253769979986
456 -18.539123182310487 -9.266845919018655 -15.827042744314507
454 -0.06397149155736112 -22.993753867846785 -14.036517527396152
11 9.181680382059708 -16.8990719006411 -26.139430959908857
137 -2.1674488862433985 -1.0454992852900127 36.800652536139275
141 12.959557308216562 39.88880263514634 8.730616850439276
143 -7.5962091120048685 -9.477539590079703 43.187775981770486
139 -24.10253340619701 0.25504366217967184 1.735176192581956
265 -19.695648133304587 7.904350532162003 13.789635169831536
271 21.58305542485853 -4.485367397677249 -11.349223323911293
269 32.54177876264546 22.67429900704551 -1.3435674300398157
144 -13.256006829763294 27.73913519872096 -3.2924921762848887
267 2.6452790937364052 -19.44765910290953 13.92243878206479
393 -25.797103503201754 -0.8754622697058911 -10.665333278640771
399 -11.801802653056802 -18.027520771952574 2.451258558022176
397 -4.155333555126252 -2.960931459800707 0.38636866140037773
395 -13.884576958428305 1.204510876771636 -6.608241506729299
9 15.490841107651999 -3.119993969180724 2.705802432705832
492 5.017999920362038 11.399848172460247 15.741559304670547
15 28.510560976162793 -8.179523533207316 11.438054665278266
13 14.540812520474473 -0.6666509122479929 -4.605077140369936
43 2.4449399270282757 15.687049549190016 42.439380315959184
169 27.6985798929916 -0.7743035828662933 11.312257792337695
175 0.4236498524530373 4.105238357733607 -4.241796521381213
173 11.283482153009153 -7.924797380707359 -2.0424989534064095
297 -6.4882951969709595 14.74681155146502 -14.710429928745508
171 -0.5361835151482102 5.67169262638155 16.382204090736188
303 13.150071782985803 12.20084471347354 6.47171899198153
176 -13.042213537335979 2.230235245401721 3.606486257921945
301 -24.216919101500753 -1.8912067833075643 13.036790059374102
299 -10.638447465085024 -11.359097978732358 2.404188629816847
425 10.559924098068203 -4.313499595835747 -2.1653002118106337
431 8.068661774606035 -6.0070521280707645 0.38781300027695925
429 19.013408906492273 4.349888186592161 -19.302124218839477
304 -9.212298225498069 19.53977395918072 2.8001502982941577
426 27.89830924906244 12.76592338215197 -6.086767112988369
41 1.9892637098962154 -0.017619140057043004 4.094768065074819
427 -1.1434831799189764 11.727946440374778 -17.81655615859066
45 -6.8821566749270024 -11.52314381507453 23.1549942285808
47 11.865766118739193 -0.7860565180963796 11.280752758477945
75 -8.738435844895095 -0.24427797324152334 -27.309199161841633
201 -14.723177381818426 12.859023238849769 10.757259030423434
207 -4.23986726869738 0.3407146526892483 -18.305256306055206
205 21.984180056382122 6.969033418962971 5.800044009482019
203 -12.395791271290516 20.917040412051737 13.932996108442445
329 -3.25653342542241 -22.770049591931738 2.4920743715728118
335 14.1752418497147 20.30064953604846 -11.149619524501968
333 -3.1025051673571347 21.69008933221202 3.9366249032841147
331 6.222994528477609 7.5272229331953975 22.9342338019337
457 33.83432803937599 12.361400646790406 4.977055042294935
463 -15.242082420375663 26.3634828844129 12.260694721322873
461 -5.211449449935489 8.74896112531383 14.361463791582342
336 15.741910604017614 3.968123286154744 -16.960481209381044
428 -4.955918168018823 -14.559635535541199 22.103085697451036
459 -1.2950615238952226 11.967061254216315 6.7052106388881825
73 -12.874467170048804 1.4710114544042916 -20.303292675104956
79 10.04159210969263 18.272281037232137 20.553505678115194
77 16.96717983577275 20.694741838671998 -8.516739404523413
107 14.839340943134081 27.693844938204556 28.327072809513858
233 3.4808574318698757 4.753085967250813 10.18715360673023
239 15.362282812600554 15.4547630922637 -8.738617588715279
237 3.5344164644582055 -31.48425303236332 1.7472896294819191
235 26.74799871221579 -29.280438516511392 -26.53111917602788
361 -24.66640358386456 -30.671251077353503 -3.930020099613582
367 -6.227626903492854 1.0082863841984329 -23.691340284003147
365 -15.929657981485356 -18.9511120754168 -17.17500762851241
489 -5.888964932464791 -8.380988018090985 13.649619821219707
363 -26.161303030243975 -5.7381956703635995 6.557970814374127
495 17.380331709229957 -7.736749281432056 -3.667073296628053
493 11.441811283902771 -8.55273648319301 7.115746062007064
368 -4.685252305010548 0.23579471911461916 12.128922023693669
460 -14.878835664789433 20.550837727939143 4.247388156250037
105 -12.505873224725343 15.014881143157497 18.815346924558607
491 -14.012885571442284 3.8477542218884353 -2.1010905234360973
462 -24.75938806454167 -5.084969567755413 -0.9156172541407944
109 34.3737280788992 6.138501975752437 -19.851314383796574
111 0.21368146136086685 13.383089134591936 -2.147002943196633
106 -7.110325891948872 -7.1767775172941315 5.291282815956935
496 12.248340099686159 -26.54030734471723 -4.258681321774357
108 7.476863976494059 -15.532894125670945 -7.40152734049813
110 0.613842674090564 -14.388300501513305 20.809731980903997
49 19.84084188846324 3.3849881745629817 -12.394609248311136
138 -13.653028794789554 16.88645729586494 -36.0937595273574
16 -15.607010354931305 0.31523972438904657 1.3687692945804921
21 6.351485706336606 6.6015433823215 14.910845894249485
236 -8.453242843573712 3.3904587989119657 -13.741339571701396
238 5.377015263833939 21.192527625393375 10.371859126914629
266 -13.426325290351537 19.530892147834614 5.2255173913076165
149 13.487369322114374 11.123743310998249 20.244344384956868
183 3.643680737426509 4.299226246535023 9.690224459523026
181 16.776953032520154 5.398910785670114 1.4702099891185068
366 8.816681785589065 -25.260380985912718 14.698969919185496
305 29.52812747857638 7.005953763626205 -12.733514524451147
147 5.351504611663568 -26.05438490956937 -33.545836268983706
364 -1.6916505940140663 -17.4169605903862 -4.002245596401181
272 14.856094896514065 9.64803398748245 -9.504856155515151
394 14.629513603176004 -20.052336308349435 24.188979371394243
311 4.437688772179695 -21.088143586231304 -7.96311098551999
277 11.755466175068994 1.7392369597012847 -37.79331833786897
494 -13.577964003666906 2.0132904824807896 -10.2794463324591
433 17.50149391760625 -2.9776350095944952 -5.042717317297925
275 15.718845908695883 0.8402319627366447 -12.848413062088609
400 1.6894678095103346 -2.761986158483002 11.066308725016444
10 -9.568358880504531 10.385104720474668 -31.232499496456235
439 -1.9504687537412935 -16.468468605096277 16.08824958399665
405 24.30057887975703 -20.92019963646584 16.11292294582323
12 8.67637519460153 -25.349960384578885 12.02962865345966
14 9.054231524977771 6.442515280107744 7.24589455015444
81 12.8266803414674 7.627108979451647 -2.5894814744657277
435 6.734359639336121 -13.900776236297109 4.359819353300829
48 4.5678847440631385 0.7738716300130899 10.302694846405869
170 -15.097980564415865 2.706089984471548 -14.937133755282979
53 2.31309537410905 -7.064238632761734 16.988624333145832
87 1.7829320986279276 -3.5091823913404494 -9.063923331767183
140 10.890551414496459 3.389418233248679 -13.173391904168186
209 -4.776013297732886 4.338679688674292 -7.3812475225138146
142 5.180055121429424 7.080086744441522 6.695612704534822
298 7.452607379321976 15.575044666767932 -14.524844987455795
215 -10.281572641257911 14.42518917191379 -3.2897568468503082
270 5.732526260203971 26.80667406699985 21.290862617042503
268 -15.860255683832477 7.829290726828308 40.76498241059832
337 20.26549729841504 28.94964661727744 -9.487643834906795
179 -42.57814337328018 -1.3469954444429468 4.1572702901423355
309 25.204613979352896 -5.65915661684378 -3.440457257117112
398 -15.798781440965154 5.845961124110061 5.334429749050374
396 10.931588239338026 -6.556852246170466 16.853974321160415
307 33.212038997868284 8.997754285575743 10.341563586794974
465 29.020546169555043 -6.627247264261425 14.532347209568547
432 -15.41310592391014 18.074257532326016 1.2443732157901022
42 -19.666343852379153 0.02204676044357092 -38.81292630668779
471 -11.326196792067204 -21.278969689911946 1.9746901725141184
46 -0.34713416406340486 -22.676015088523684 -7.057923761347805
44 -12.831978175874285 -14.038633817479969 -4.127246589282359
113 22.70121574580988 1.4966889291153902 -15.073880916908779
467 -20.584226436145666 3.973446469126612 22.89283878496757
80 -12.736607972735934 12.102966470706871 -9.362916176976533
202 27.04095209483153 8.219328195944955 -10.597443392027314
172 -14.103299280167146 18.59509320772516 19.22622358706349
174 -3.472543660244486 8.142373434597651 -6.121245314340157
330 -0.18012824321372614 -17.52133133645117 -26.29174353389438
208 -1.6903992805581114 7.264255311397357 8.46425685167137
213 11.56630194144023 5.415197786705331 -16.3955167398917
247 -16.18047837541766 28.594276477022248 -23.279264379658237
300 -9.966281199106941 -11.241193850906635 15.688350323621048
302 10.814159431287013 13.00124636091417 6.636047154576295
211 7.173389008441197 12.299086006202963 20.882202135154355
369 -15.647241688484614 20.03926466129005 41.65849517443583
458 25.779302134862338 -7.5229003210727505 -8.594976839765396
341 -0.8591617972311553 8.65761603996017 -2.6445556405762907
375 13.742129455860367 0.38386717514435875 22.103514498616867
430 -15.726296368306377 -0.47955970431117567 2.6368035758664363
339 5.989441717334208 -26.631941707170192 -6.426214488740444
497 -29.797313856947188 26.618073818871594 -10.533344915522704
464 14.519248252402361 1.2485326758440545 -6.8126001618666105
74 8.42818252610499 11.506301493354474 -0.07393060823156296
469 -16.25084829808686 4.30996360122659 29.203707470338404
503 -13.775560293476335 -35.58312800888396 -3.346562082016003
76 -37.54781381418079 -15.979160861504255 3.3693955653585745
78 -27.84989142622388 -10.004996211998604 -4.53646040539773
499 -7.448797899586785 -28.678032065840387 -12.070121140809768
17 31.930267972009357 -4.824448158205806 9.721586258369998
112 -12.900829228428588 -1.2010889510743552 9.066359968092186
234 4.62433785633311 18.58031492048508 -0.8454089630053292
117 -5.205268717871198 14.914346448420694 3.149811306812003
23 -10.270751650436305 -1.8251241202701418 11.747942757651693
206 -21.731079995790946 -17.35012121772828 -8.235070173780837
204 -23.841406342751945 -27.165962172938205 -23.961897754865
145 2.771902947348922 -4.901268153299348 6.188428595338674
115 -19.6635378277717 -8.498609347379311 9.392163799717121
240 30.276775263159347 0.7734670474789658 -8.18596945345174
362 27.121926579746486 -4.661158411770861 -6.174629961629877
245 -7.201440548166977 8.163548198548717 13.684218999171986
151 -14.66190827237705 2.356114142498132 -8.130562738244356
334 4.416963192003485 12.380034829278278 -21.400814824706735
332 13.36221685392849 -25.551398269506286 -32.18972687589972
273 16.198131342483006 1.9141324378979458 -4.33479862333613
243 11.491037860151947 -3.025742341311926 -6.351672074547876
490 -12.29729683229625 17.00308916019089 12.63157110280722
373 -3.7752950824643965 26.03425459497558 9.750648007872
279 9.49955978042729 9.886571815552523 0.7004504639311447
371 -17.478834049364803 -3.440925629576848 9.318905645762767
401 -17.029290281740487 15.347327920203023 -3.6572618387926017
501 -10.388207739417844 -4.849668960157152 8.737838048637677
407 0.88948839698109 -12.50639813907119 13.232526226903868
403 -4.6677123543280565 2.3757670588965385 -21.282670451163746
18 -12.184829934202794 -28.236612475252333 -18.93054860870329
116 0.6342655279029918 5.301647765914408 -2.8935352282569142
55 -7.478788631110192 10.426549758085256 7.731068309653828
24 -27.342808621247304 -27.399205389064623 19.14261525495586
118 16.29830742522561 -34.81142423482241 -30.783146462379467
177 -17.59644746000246 5.508825024242612 -12.180427653288309
19 -7.170534539334976 -8.305082068353759 30.153491864413148
146 11.026437106736047 5.378099380609098 27.74741146751017
244 2.1791644151593155 -12.29598324362108 9.856673874838764
152 -6.584296687501414 -36.93049891285397 11.232223030247706
246 -5.658566846951431 -5.884279531478321 -20.07485223103647
274 28.685358059926962 -13.897877824069901 -3.6723191934343866
372 -11.075471116499752 18.000610351160415 6.441201360377237
280 -3.2597833107273106 -4.400841648043386 5.582479428584337
374 1.9134480334878412 5.014170003105557 -4.085530493015921
402 -14.738750953916327 -5.792421817887324 -5.4911522593392865
500 6.183635229804431 -9.835856866138817 7.517786521184854
408 -19.88325133688755 -20.174682281926206 6.8998577804307075
502 -15.40400355930813 25.63787276003777 -24.088228211944287
20 -15.238552358823549 1.920823932886367 29.38886701979643
50 -8.014308374230405 3.1256392264586674 -2.7102054202655523
22 26.401395240710627 12.851945431046367 16.991108102409626
56 17.485583000822736 11.439477685978218 -9.868557679781228
51 -29.710839625942228 -7.617514781001437 -4.491308727178969
148 7.157358221935051 2.745353278253325 3.5297228531345737
178 24.220352720674676 -4.670326777375064 12.015735750466568
150 -14.744644751044483 -8.681984087117808 13.38718915821534
184 -6.678792682007375 1.1089408023060465 6.774689293208013
276 -21.271016214432006 -7.002861120741425 9.901448280081455
306 20.599817837042814 -4.9053796398942975 -5.125073233806564
343 -21.207293457371463 -10.012078700215945 16.332360575252412
278 8.15166602406186 7.319830257931878 2.5357155436058703
312 -25.745837016171574 -19.335065650573007 3.320387522059165
404 1.050130430863414 15.12918228945707 -8.183411367275706
434 12.511065905393474 5.708529015597455 -44.08361570344383
437 -1.9346949046930098 8.09331750592488 -11.88995818955853
406 20.315589555706374 -9.10300377391235 4.349114279352825
440 1.7989276184318235 -4.7925618032170485 2.8334242650504238
52 2.86912757602 -6.764234856766367 -9.650049749987238
82 10.069573207391192 2.705075207688157 0.3049792387298287
85 8.193754358823384 -15.77575165189416 22.454399093312364
119 4.313914285684266 -8.579740939914132 24.692598897707292
54 -15.970910836904173 2.1695293122486055 24.022959050322203
88 29.67868040802661 -16.014590482526625 -12.410998734054763
83 -6.8232122988582375 -9.293952042507708 16.29248284383732
241 -34.320029297674715 2.599338189776769 32.9641863911814
180 -31.370734411062514 24.962834849725027 -22.961238569373375
210 -19.183424493651806 -6.740078636565248 2.9839639603796413
182 0.4052351019533366 1.0551814536435336 7.230559781805785
216 -19.719330100483873 21.026045818312426 1.504150243305288
308 -10.538588201579485 -16.7142582313182 -11.277038907789182
338 18.07953889388269 2.42732130968083 -25.273195034341413
310 11.441152701751767 -29.773965818872657 -25.38573541874738
344 18.70945961601438 -8.543333097066016 -23.55925382954757
436 17.975038837253994 11.109083718780038 13.590321766699333
466 14.088918156348331 -6.956411030723613 -2.5740365760874715
438 7.91484992034282 27.623073608946047 -37.61128087125936
472 -18.25708537751713 -10.389006082100211 -20.542086573763907
84 30.635962744687234 -4.595768050184731 -6.444086110546281
114 9.402546493171883 22.642904333685085 10.449230543168584
86 -17.899158087849536 6.536778280076602 20.790143429164075
120 13.478656745086473 15.05656514546455 -15.453316487945163
212 1.5865623400685842 12.699405219998125 14.628233780440205
242 23.295254820629925 -12.367527913949674 11.62505845466246
214 -9.76987520172941 -36.962483591395596 -25.86431552115268
248 -22.22399872898941 -10.251716771435756 17.17429151996032
340 -12.9013776067329 1.4973434122286253 15.295290932662322
370 7.530586018548434 10.130731123002612 6.442634643268552
342 -5.241687152051436 23.009186338480077 3.7591257785341403
376 -5.274649219175306 -14.27909809281275 12.362730048044218
468 -8.861499163928197 11.505812710550519 13.942232694093713
498 2.480444690890027 1.2797862899185037 -8.652239861191926
470 -3.7601417768304497 -37.11877170926677 -7.833584445378055
504 19.404859181409588 -4.736529308011186 0.805824210958851
89 -16.95519985045993 0.33033480604668203 1.2155669033957819
475 0.3768917392832031 -15.207364899211855 9.900228270297747
95 -26.498137112429777 -17.831645900440638 -5.856058515098702
61 -21.354858208853294 -1.1170557291673258 13.286245011253742
217 -14.577767503368499 8.430532244202146 27.61286600380024
59 6.853850909512903 28.099598542087808 12.28205243027656
223 -15.8866328239184 -17.632922914204457 -18.124913198627898
221 14.673559788877501 -0.5100199208732238 29.62504649691251
345 17.85756566475302 0.000757338001744285 -15.506914739551538
219 9.302885768703481 7.07336890854067 -23.438852028887656
351 9.13770352291267 -22.003918033509326 -3.7335065252475284
349 -29.193902780145294 15.454468390998905 21.7029181998367
473 -4.5036540408651895 -1.3869260059907669 -12.154481375938351
347 -12.771871104905804 -10.428306295078858 -17.27155200526877
479 -11.231653373460272 4.579406465837807 -1.613907312582273
121 4.745698847771054 7.427799583846034 8.81282237772909
93 2.5642579397631593 -6.5663974965865535 -4.55320342348173
127 -22.391644854890732 9.596806520818644 17.384775966046096
91 -1.359040324262362 1.9455306482170434 27.407979374746517
249 -18.082972682088844 7.27781965234358 -8.010664399153358
123 4.7569376600375515 12.442380979509018 -3.1853841625596804
255 15.160781637070116 5.413364871297519 0.5230703305727064
253 0.39397191707478657 3.7351978999589517 8.636247673849592
377 10.362584969593353 16.564532914012123 6.100418886516087
383 18.856603823358192 -0.619076808692693 8.589818403257176
505 0.48303591396838064 1.0857031093174567 14.40217558220754
477 -12.69273326906179 11.123841092251304 -19.85579866399885
511 -0.42949504941542654 -41.25753328029327 -17.05537971679646
509 6.221164444822883 -18.93067048708707 -16.354087860815742
507 2.6516701748859113 -0.7980177939487587 11.27239308059179
25 32.51682395688398 12.419136356705327 -5.628831789930597
411 -3.236022151427626 -13.173788329612591 -30.019461446297857
125 8.110054877026625 -33.82996883965342 -17.517098407847143
31 17.55737928026824 -2.3211851861529653 -18.40000750897606
153 15.733700130887858 -2.4021199421105743 -1.2659552721580818
159 -26.60896523184899 -0.1407396762310249 8.893034464827428
251 19.22813782108888 -6.137449393049529 14.469115748426828
281 5.304563819805942 0.04280473537188412 -12.543395872756777
155 -4.635007454494434 -0.5345213866452646 -6.000214421577227
381 -7.909199797944979 10.535653805449531 7.89375182894951
287 32.92607582691389 3.689644571993155 9.346744908088347
285 -3.50078596073162 -15.410487967393955 5.866795726388867
379 -11.73592913527475 -15.719756225776141 -2.977969553696007
409 7.400227377532521 24.581742803595912 5.596524564602135
415 -2.4039729565436794 -4.319615024413189 6.90565328116516
413 6.75596085087752 12.375159606834323 37.809285780041385
443 -21.4293403638459 -9.45890128296072 -17.41097007919705
57 26.126651283426984 10.844154913589419 8.616678977352413
29 -10.356659791772326 -0.5739786047385661 17.630113598705293
63 -16.850653392571168 10.0196422680875 4.300481550430319
27 1.109133692317477 -9.611564030820496 12.036603338354775
185 0.20406614440548 -17.348881492563333 6.574484761526457
189 20.978313618934262 -8.121383163765342 -2.4810743001260156
191 27.45637608911788 12.412251423938553 -7.413819260682523
157 6.464681237496778 -20.035308297003343 3.913562043123577
187 -7.420768980689434 0.7374384944383823 -9.107647332265696
313 2.250463125246876 28.70935169159198 -24.47743091406169
317 5.0497908752271705 -30.53084456771539 -9.059483950123237
319 9.553183635463684 5.315367773449174 -7.017329816688959
315 8.70871378350227 3.4373463181013566 5.80638345269749
283 -16.21576769760457 -5.890961717325734 31.72725767569646
441 -9.092601162873201 -15.459288308227872 2.3919895755456877
445 -12.861337206668786 16.168251641555273 6.527979852687065
447 -14.334140955177228 -0.346617583350902 -10.667027148462436
30 5.759746109074923 -14.455328401405929 -9.475282276261684
28 10.525543705002265 -10.088252895163691 13.585264790688983
186 3.4545699982470164 7.116965913324585 -18.900321733899386
64 -0.39293506544051365 10.793947923765886 -4.503134872066487
156 -29.806168386429626 11.95243748018276 15.673313019825555
158 16.198952661911104 -8.194611415782852 -4.700246922495859
192 2.0290531696272454 7.575415667107745 14.27178673616781
314 5.099131894988621 -35.49306974462813 -0.43344329151602795
284 14.543936010624483 -0.37283906121650223 6.511965606896402
286 0.8915110631343551 -30.124231113854975 2.153295059674079
442 13.536164839052432 -9.49562541981531 0.25971542080834387
320 33.96736032701063 14.888658740771872 -14.643100754792517
412 8.468297241214707 13.025229779294724 -17.06530454208035
414 -20.219139741521808 -7.075954163539161 9.147994617408077
58 -6.86903362178308 -3.6161606155568373 -23.654403180251048
448 9.676008286049553 -2.124851360466335 -6.1301018194892
62 -16.28639581447089 5.3121498466557835 -3.0026311639252583
60 11.614081852051738 -4.1838987856336525 -3.4501323378240567
96 -26.148049504468208 15.124910706085982 -13.942044555195723
218 -14.070860637734526 10.357771212257791 27.74621830235079
188 2.987066552947578 3.1966083463068045 7.827273358555412
190 13.772646389814918 -34.87678430544189 2.7922756966848823
224 -9.943291886432036 -2.509172870983082 4.3766227933209425
346 34.33600916085329 -15.106285737491339 13.06279377705859
316 -2.70881295778007 -2.759074221539606 4.820481446802795
318 19.004001389956162 -20.638902187025042 1.3001892383399682
352 18.596403584356825 -5.338842607218032 -2.635589280238486
474 -12.824225576583775 14.263325576389104 -3.325872003277847
444 8.253348768266779 2.8042270271449836 11.267109257633221
446 12.988157718658979 -6.009782656927504 -26.472880556614474
480 0.6343619897325227 9.497184639880263 -1.2497724494492912
90 -14.12659686267811 -4.643420744595984 4.9353078543867035
94 -5.300852786363617 -21.59632511449436 11.598602957343664
92 -2.2027256415812024 28.53799365197997 -19.71444890270428
128 3.081764691133541 -10.623482378804356 -33.59626110256355
250 26.36819590872684 18.565888252949566 -5.1644481363944
220 -16.35706398036877 8.54650342174096 -29.032569505355315
222 25.625575561931797 3.5593635564257213 -3.056997925231342
378 9.102336680429133 -2.9711009947655467 -16.726517328427065
256 1.6047027271096383 -29.951653404947113 0.5345442648485176
348 3.9575260810764603 -6.784511448538215 0.6604883696963003
350 6.45715767711299 -2.1049151058974385 6.1993130964548495
384 -21.13133856973713 -0.26275836647550627 -20.149129969167234
506 -13.344657492298916 1.1293356109695358 5.355124744015537
476 -5.126153960653546 -9.8405560213009 2.9347481945728324
478 4.634514664493949 10.858489984917457 0.1664124265524593
512 -12.142166237946357 -20.719922532134465 10.20468299354959
122 -25.480240656638244 15.696678861671662 -0.34137784522009246
126 -8.256306530134964 -7.122893709962809 -15.772243882396651
124 3.9120659935427993 8.427579511859173 33.909507325851386
32 -0.6341680297158492 -16.02498920503194 1.9803378718486435
154 9.304471737103155 3.742539741442428 6.930625163482655
252 -4.017780526361296 15.623048488215131 -2.097530040468787
254 11.763778668047927 19.35662898353464 54.920869136268266
160 6.602740451353165 -11.455564380455623 -10.260344981383634
282 2.2496651379308417 3.0474376242252306 8.053315217144808
380 3.987688495082739 6.090125684190015 -2.8108264243102536
382 -2.6809758975035347 -12.395148150071853 -8.257171764013657
288 -3.961910951005067 -8.365530284056968 2.250474812981932
410 -24.75368425659251 4.449858150412433 8.042744832869877
508 2.6393367727335773 -4.289293367682701 -12.772112033088687
510 -0.9881683182645853 -25.818072163393833 -16.835851265217084
416 -7.109797051973572 -1.5362919776827582 8.519407971894978
26 8.31623998140823 -8.2071131330084 32.26097651371819
