LAMMPS data file via write_data, version 22 Jul 2025, timestep = 200001, units = metal

512 atoms
1 atom types

0.12068996315599811 16.973205314405277 xlo xhi
0.04642506594949403 9.822739974050636 ylo yhi
7.398347394901739 23.813944605099397 zlo zhi

Masses

1 12.01099999691024

Atoms # atomic

33 1 1.4151380875770216 0.38093933089801 8.788320331451516 0 0 0
419 1 0.7950043071170718 1.643205515616131 8.640930841979534 1 0 0
39 1 2.825129980373465 0.33246711327427547 8.792601519797998 0 0 0
37 1 3.5559432667571165 1.5250642971695294 8.820283022393795 0 0 0
35 1 4.956903962097852 1.5640100079201775 8.558727085362676 0 0 0
161 1 5.617827668706808 0.38828733524236 8.238751029926338 0 0 0
167 1 7.0718128131611735 0.3290457097889784 8.19436471597482 0 0 0
165 1 7.8133056144363495 1.5475693484033755 8.185718573761754 0 0 0
163 1 9.155578947709774 1.570346016704991 8.268069397868818 0 0 0
289 1 9.898532098370822 0.3399363674759599 8.226741009599863 0 0 0
293 1 11.829258155356115 1.6299051487284058 8.423902887242743 0 0 0
295 1 11.164173376154976 0.43770318583013557 8.157637409197955 0 0 0
291 1 13.306473476467865 1.6279110980898348 8.275037563780257 0 0 0
417 1 14.071255712834278 0.46634437653788247 8.415605618279455 0 0 0
421 1 16.232748242352997 1.59051140246587 8.666692726811164 0 0 0
423 1 15.469522136785997 0.3904276244703086 8.444050588843597 0 0 0
65 1 1.3978150599339885 2.801592939095463 8.711132410734162 0 0 0
451 1 0.6725301907038275 3.8966367356371596 8.510765587257543 1 0 0
71 1 2.75010085462235 2.7760814717330984 8.424778556376468 0 0 0
69 1 3.5283576873728975 3.942655985465433 8.451132977140604 0 0 0
193 1 5.626231452621941 2.7513068365161972 8.3283859156318 0 0 0
67 1 4.908547591954939 3.904741526470164 8.25487296756822 0 0 0
199 1 7.01231227412499 2.870217080925391 8.175802672215088 0 0 0
197 1 7.700001710296876 4.058408953012383 8.352006784656357 0 0 0
321 1 9.79648043530626 2.9071907332069173 8.413071111355984 0 0 0
195 1 9.076936483703848 4.0980150086344045 8.341456562229101 0 0 0
327 1 11.186644095315385 2.802028102407932 8.220598288771782 0 0 0
325 1 11.841558010074651 3.9328164594228237 8.27538412653152 0 0 0
449 1 13.9172895148022 2.8174187052868414 8.485461663632709 0 0 0
323 1 13.229734158358688 3.9521067675309967 8.299035406861355 0 0 0
455 1 15.347129777790402 2.696774915724698 8.460532345777635 0 0 0
453 1 16.082446341509712 3.8723518220650166 8.576271709670227 0 0 0
97 1 1.371529398489646 5.14162570964777 8.699705307995957 0 0 0
483 1 0.758784210176067 6.289251296640194 8.735851250026226 1 0 0
103 1 2.759240150256487 5.126137471517942 8.428775787152034 0 0 0
101 1 3.438039152639494 6.388980999902214 8.487164749429516 0 0 0
225 1 5.637738958774318 5.144687432826634 8.39471365886662 0 0 0
99 1 4.823598073120961 6.3865504863021725 8.212623964647435 0 0 0
231 1 6.980191247871262 5.200468409674778 8.318104436938116 0 0 0
229 1 7.612119288859457 6.42668787598817 8.23662155546067 0 0 0
227 1 9.011405311519432 6.39848539521998 8.398323500159488 0 0 0
353 1 9.788644433108983 5.233601960964433 8.358063214901668 0 0 0
359 1 11.20630075290115 5.240231358017568 8.37591681419371 0 0 0
357 1 11.870810744088026 6.421482203322226 8.484139250086523 0 0 0
481 1 13.967114867780811 5.209730795722243 8.478082136065456 0 0 0
355 1 13.235157108356958 6.463478802121964 8.385773388532753 0 0 0
487 1 15.49684209335198 5.180858009650314 8.61179198584862 0 0 0
485 1 16.16236065660008 6.3697484677617595 8.777915815341634 0 0 0
1 1 1.3608387919587221 7.653959132833514 8.88128366171055 0 -1 0
387 1 0.6850497553222668 8.818407473002987 8.767982835639582 1 -1 0
7 1 2.8115030066985085 7.630168628341442 8.742434698194726 0 -1 0
5 1 3.541218604311974 8.816634053335356 8.687116272089785 0 -1 0
3 1 4.916706896647007 8.902950466982263 8.242417701589536 0 -1 0
129 1 5.6028839409878115 7.614870094271338 8.34968640068359 0 -1 0
135 1 6.946960041996241 7.609003749883676 8.278378509324613 0 -1 0
133 1 7.711827558102667 8.808614379205244 8.278260279945034 0 -1 0
131 1 9.18365540249964 8.86075314913147 8.125292100552745 0 -1 0
257 1 9.752608417449416 7.699874753325665 8.343498625376135 0 -1 0
263 1 11.125522861215721 7.600021792630068 8.411684175635841 0 -1 0
261 1 11.873892283222554 8.885229643237642 8.207603698377582 0 -1 0
259 1 13.286843499301277 8.953388412447719 8.196922882462188 0 -1 0
385 1 13.91868104711175 7.737673893421339 8.398024494731134 0 -1 0
391 1 15.387721036549548 7.726904845396361 8.347953049526819 0 -1 0
389 1 16.065795155853966 8.896888941651303 8.548885409134902 0 -1 0
4 1 0.7745737781439321 1.858732838543712 10.756035564187846 0 0 0
2 1 0.1783594875122402 0.611778252100623 10.772859824947112 0 0 0
6 1 2.2494117826853586 1.827564114130477 10.710643561960236 0 0 0
8 1 2.9622308625141556 0.71005850199597 10.874529971020657 0 0 0
130 1 4.346135630977274 0.7374514723434735 10.707286331564678 0 0 0
132 1 5.084208620231343 2.052733168009439 10.593963585715723 0 0 0
134 1 6.42703146344088 2.028115553479135 10.296496485730863 0 0 0
136 1 7.117894777091018 0.8921008490860987 10.370779945731599 0 0 0
258 1 8.502954154301916 0.8511610903178904 10.323662014955259 0 0 0
260 1 9.236966828931406 2.0668220055397124 10.314344452230923 0 0 0
262 1 10.682943725004757 2.0069283324119302 10.157142530007892 0 0 0
264 1 11.450034734803783 0.7551439072829359 10.294365732570062 0 0 0
386 1 12.852227543686146 0.6818286033851079 10.094082666118986 0 0 0
388 1 13.494407942538363 1.880444400383012 10.357376633594178 0 0 0
390 1 14.949282151139478 2.0069703475104737 10.42701510430868 0 0 0
392 1 15.578284040580604 0.715367712749586 10.525225289202591 0 0 0
36 1 0.8258122419492553 4.321363421892547 10.649641374176648 0 0 0
34 1 0.1451507157409567 3.1321798593928265 10.545053626632711 0 0 0
38 1 2.292715538012982 4.376707977985002 10.62246890209942 0 0 0
40 1 2.8917512476865075 3.0560616405688905 10.519052293861789 0 0 0
162 1 4.286417394636714 3.1571626503738175 10.363553339426026 0 0 0
164 1 4.986290025695594 4.373639996234925 10.349049006685984 0 0 0
166 1 6.466148948186072 4.336488805729273 10.160417867272907 0 0 0
168 1 7.169915901844876 3.2186578105593795 10.228022067012287 0 0 0
290 1 8.53947559352739 3.2529503786620566 10.390527301248884 0 0 0
292 1 9.295110672588281 4.332077683601079 10.416438111441982 0 0 0
294 1 10.660477296325368 4.360071492105511 10.213797682784099 0 0 0
296 1 11.322761828069476 3.143546538272866 10.324635911083309 0 0 0
418 1 12.731717147021085 3.1775826435963115 10.285818822935664 0 0 0
420 1 13.426184425200479 4.329304319487505 10.43879175073996 0 0 0
422 1 14.888894415392253 4.364793202147543 10.49755064050686 0 0 0
424 1 15.55183544199988 3.125244694202894 10.54102312952011 0 0 0
68 1 0.8603079624847092 6.709794560866285 10.989733034430014 0 0 0
66 1 16.965520027098197 5.536809870657491 10.65240513269281 -1 0 0
70 1 2.314584710446375 6.918683358132958 10.675816284351443 0 0 0
72 1 3.0181706034881133 5.668668364984913 10.74236492195534 0 0 0
194 1 4.314622798808327 5.599890883179297 10.391305751611899 0 0 0
196 1 4.968631061204565 6.89913796997581 10.25147855783383 0 0 0
198 1 6.429347392634314 6.819907887480098 10.189558197779396 0 0 0
200 1 7.109107008026226 5.616944147272375 10.454363915288496 0 0 0
322 1 8.44576205357098 5.640545408285569 10.291466676700896 0 0 0
324 1 9.263631134664514 6.962492953457331 10.471840649782216 0 0 0
326 1 10.570114517426292 6.970453854359074 10.470164354522801 0 0 0
328 1 11.319590875354008 5.664359753310135 10.471112006106745 0 0 0
450 1 12.78773425901368 5.600092999967661 10.435026551731918 0 0 0
452 1 13.449159795247539 6.811381612743893 10.451032848891401 0 0 0
454 1 14.80832137556046 6.849479163861389 10.411817596866875 0 0 0
456 1 15.589895157608801 5.609661371498242 10.675291841999908 0 0 0
100 1 0.9332723480780789 9.222929199680353 10.822003028972103 0 0 0
98 1 16.957736954319902 7.991445154052606 10.780992131895497 -1 0 0
102 1 2.2340319460491904 9.226961432779301 10.809410071855005 0 0 0
104 1 2.9922546079533263 8.061238885785762 10.757030399547087 0 0 0
226 1 4.314188269579417 8.148437974568452 10.556575852181766 0 0 0
228 1 5.113196464776505 9.416424355803079 10.497518799103918 0 0 0
230 1 6.468949335150973 9.432600968738283 10.303346482235433 0 0 0
232 1 7.133521590890715 8.174325172243583 10.31228579987367 0 0 0
354 1 8.525511463398376 8.22341680649907 10.305679404729617 0 0 0
356 1 9.229404497256875 9.433793455942414 10.181278042454997 0 0 0
358 1 10.586145628746232 9.362544616602142 10.162611327329063 0 0 0
360 1 11.273363782945022 8.133729106809307 10.428580091375371 0 0 0
482 1 12.73144130867252 8.094162783607945 10.414133755310846 0 0 0
484 1 13.526855448066584 9.28511979033918 10.340224512159812 0 0 0
486 1 14.92127361083566 9.187863280320464 10.474425960781607 0 0 0
488 1 15.627057442535639 8.01297097583605 10.529970945623491 0 0 0
13 1 0.3565927089877704 1.1594564105864047 12.90313422363462 0 0 0
11 1 1.7716971451580887 1.090767296835133 12.934227475245883 0 0 0
169 1 2.5811971549193684 2.3397732618007896 12.732775664684347 0 0 0
175 1 4.002105889273357 2.326395815027499 12.737255957401462 0 0 0
138 1 3.5396367355261984 0.6963213742936942 14.607406611927384 0 0 0
141 1 4.636867906723648 1.1079837932012435 12.744468056906529 0 0 0
139 1 6.010243996882999 1.083278681647991 12.438951261165922 0 0 0
142 1 5.748271916324034 1.9618523914441233 14.486915859466821 0 0 0
140 1 4.352715523980078 1.9013138752363266 14.791368489570017 0 0 0
297 1 6.736003839560136 2.2412687264012634 12.38055430840104 0 0 0
303 1 8.18565573893765 2.4184953373826272 12.543163358186117 0 0 0
144 1 6.428943458873528 0.7523870982067851 14.536296773221899 0 0 0
269 1 8.826578700916455 1.1918649426402221 12.370179159796784 0 0 0
267 1 10.189565944899725 1.1347519524089567 12.256079862456044 0 0 0
425 1 11.002365719314641 2.452238475516171 12.368965304470159 0 0 0
431 1 12.408162260791403 2.415031407858949 12.192873352906597 0 0 0
397 1 12.940980822787 1.1802532474284224 12.334705480439625 0 0 0
395 1 14.335377465088664 1.1033557535190788 12.450812595744466 0 0 0
47 1 16.55304088257037 2.326143761069426 12.560554972667925 -1 0 0
41 1 15.162450443652288 2.389388510037029 12.637379839185515 -1 0 0
45 1 0.35718398194186096 3.4704469109727762 12.748768522086557 0 0 0
43 1 1.7578291978130085 3.458712097585121 12.64548395417345 0 0 0
46 1 1.5647114645218212 4.425305859826555 14.631589885870468 0 0 0
201 1 2.5522846052229164 4.678143849548279 12.744971801605868 0 0 0
207 1 3.9997561156527746 4.751122897656956 12.35982194144908 0 0 0
170 1 3.701552001216595 3.2522187449048143 14.66102029230118 0 0 0
173 1 4.741543798965443 3.5004053924877914 12.38162552597721 0 0 0
171 1 6.112460549528499 3.537314467353593 12.133055152333505 0 0 0
329 1 6.751350846546113 4.764666260532445 12.502534189265557 0 0 0
335 1 8.21171674442288 4.803676254571192 12.465008422410811 0 0 0
301 1 8.924847669597845 3.669609447510782 12.636399505255755 0 0 0
299 1 10.324947339729643 3.5089893711107942 12.337184331859891 0 0 0
457 1 10.982211757219545 4.766543019085695 12.370595444001266 0 0 0
463 1 12.367746545322538 4.754259690187838 12.379832452792243 0 0 0
429 1 13.077276149898772 3.6132938435338886 12.41008259083569 0 0 0
427 1 14.44970648766455 3.6261423683736393 12.36918302088817 0 0 0
79 1 16.583170546450454 4.74778497319324 12.669639853028846 -1 0 0
73 1 15.145919530412433 4.839877449805248 12.552453977142747 -1 0 0
77 1 0.4289338405062672 5.954102328187151 12.876569194341133 0 0 0
75 1 1.8906604561658447 5.900265744103125 12.729525902955192 0 0 0
78 1 1.5514485872311736 6.7886822326170035 14.83156072583364 0 0 0
233 1 2.5660835710225403 7.088934741210117 12.793266231527413 0 0 0
239 1 3.8487114183116713 7.233406090425651 12.543064495082351 0 0 0
202 1 3.676216512055475 5.725643086518138 14.523874500514047 0 0 0
205 1 4.618073367470517 6.055402183210949 12.46224608734481 0 0 0
203 1 6.0200124031111475 5.950266624582912 12.335350554115257 0 0 0
204 1 4.432099720167363 7.003959889233585 14.615045844073695 0 0 0
206 1 5.7793923746544635 6.945081987104132 14.520546967972045 0 0 0
361 1 6.714753201727712 7.155918394732078 12.538851841250505 0 0 0
367 1 8.23362718340874 7.277096453429006 12.302123431730177 0 0 0
333 1 8.933894007302168 6.037523423484586 12.462586084921085 0 0 0
331 1 10.235690162222793 6.046922750625556 12.37494870278601 0 0 0
489 1 10.915685166452073 7.267938842865252 12.531013204312789 0 0 0
495 1 12.35828062422727 7.230148617641543 12.487166562420652 0 0 0
461 1 13.077702102399032 5.869040123886168 12.628618073309635 0 0 0
459 1 14.443353731105313 5.946668423860054 12.406605173759647 0 0 0
111 1 16.548529321208157 7.135746616899871 12.729051966521634 -1 0 0
105 1 15.17811665850827 7.1461324871331255 12.577063072710734 -1 0 0
109 1 0.3820154727062961 8.44055991951231 12.924111568573942 0 0 0
107 1 1.780634951924872 8.46763915160749 12.856298471867643 0 0 0
137 1 2.4501755816301576 9.694526152685807 12.814927351933626 0 -1 0
143 1 3.8347918016601112 9.661171859818568 12.585529446753267 0 -1 0
234 1 3.626735062604048 8.171358868488316 14.534156577797013 0 0 0
237 1 4.505358983255055 8.480136643524691 12.615034054246257 0 0 0
238 1 5.602615794447466 9.341648733822998 14.594858184754608 0 0 0
236 1 4.23955971536791 9.342890278086799 14.624331915660683 0 0 0
235 1 5.9856150592439485 8.406747361698647 12.500198214023445 0 0 0
265 1 6.779532893018892 9.72406846147011 12.548233335121648 0 -1 0
271 1 8.059459366783958 9.737556420672547 12.409569053917032 0 -1 0
240 1 6.380277578959414 8.105752458062907 14.576429262318424 0 0 0
365 1 8.858693220506922 8.472050316799447 12.411104879511967 0 0 0
363 1 10.224482243102315 8.52678327905085 12.231936619560063 0 0 0
393 1 10.916495000559244 9.695085764700668 12.292785094383348 0 -1 0
399 1 12.248377025911896 9.698299280243303 12.314268240333874 0 -1 0
493 1 13.071356939971375 8.469595729955692 12.502068850117412 0 0 0
491 1 14.474497282054298 8.483041157861779 12.465923388141544 0 0 0
15 1 16.471949324020954 9.751263955290904 12.727488111666256 -1 -1 0
9 1 15.112532709970365 9.73916644082685 12.519749930026158 -1 -1 0
14 1 1.5579881482453664 1.9129672793961623 14.877651919420064 0 0 0
12 1 16.965782892061583 1.9950658836023638 14.77056468604173 -1 0 0
119 1 1.3695084319622641 0.44518334670194304 16.926079623974587 0 1 0
117 1 2.1584158468297088 1.628782828448389 17.022800773520487 0 1 0
16 1 2.226105309838167 0.6988096205218884 14.99904640650446 0 0 0
115 1 3.60140745596657 1.6396303063913507 16.710163483905607 0 1 0
241 1 4.269726296401701 0.4770202804368042 16.690384425925494 0 1 0
247 1 5.676053247910427 0.43951477216897394 16.51063191384599 0 1 0
245 1 6.3398510358139495 1.6614038320701119 16.56852566133477 0 1 0
266 1 7.94505549406968 0.7301435054892277 14.408594296538315 0 0 0
243 1 7.7247989080454476 1.6668647368411946 16.58812336162174 0 1 0
270 1 9.992814191959669 1.9360732193575194 14.363180527909885 0 0 0
268 1 8.632750508830053 1.9793394824949313 14.626669194895506 0 0 0
369 1 8.462919003880685 0.46815286552812135 16.652911491284236 0 1 0
375 1 9.842785469512066 0.48913839503557405 16.277263710165705 0 1 0
373 1 10.579494252518817 1.6952723718466098 16.483319495087315 0 1 0
272 1 10.588348015504511 0.7536613002557732 14.340868103835895 0 0 0
394 1 11.958355423107307 0.797571734190923 14.319710049876985 0 0 0
497 1 12.735917595735318 0.40338254564074183 16.440289263999944 0 1 0
396 1 12.7002718026052 2.0000898869842705 14.41632461494266 0 0 0
398 1 14.056916633533612 1.9131086800234849 14.645485063153622 0 0 0
400 1 14.74894431026025 0.7503418761612578 14.517534042376361 0 0 0
10 1 16.116093191008385 0.7409871922759833 14.663012285256297 -1 0 0
44 1 0.16717264496396692 4.41914161271219 14.812559191898583 0 0 0
23 1 1.4278079785589044 2.9070931352447205 16.838853241492377 0 0 0
48 1 2.334547263141968 3.1767897396134828 14.690038598331384 0 0 0
21 1 2.0897856924398166 4.075549271861153 16.71152545107266 0 0 0
19 1 3.5884543758780874 4.1048634017587755 16.689206151789534 0 0 0
174 1 5.768923317161478 4.467543685767226 14.360797473351392 0 0 0
172 1 4.411333392416538 4.43032265288468 14.455466551277414 0 0 0
145 1 4.274084189398919 2.9064518154384356 16.801930119870608 0 0 0
151 1 5.633527013346898 2.8079001760724926 16.36279439628522 0 0 0
298 1 7.914006253407289 3.1686525066958486 14.545787056786853 0 0 0
176 1 6.472159393619222 3.208465748057936 14.391450239909986 0 0 0
149 1 6.398976813100322 4.078407653474548 16.43076864199896 0 0 0
147 1 7.731205384440654 4.013127151979952 16.534345231868304 0 0 0
273 1 8.489552130966898 2.7971136531265173 16.60152478193871 0 0 0
300 1 8.628631781767284 4.440405062958043 14.553912330898305 0 0 0
302 1 9.97765013279861 4.418413612205299 14.557267640535745 0 0 0
304 1 10.655245116055232 3.16550577991437 14.414564067569437 0 0 0
426 1 11.986967181750112 3.2514381843417257 14.476234378312613 0 0 0
275 1 11.988041454824236 4.030472714455441 16.418518079308125 0 0 0
428 1 12.733148792794793 4.386748871442134 14.512122922538735 0 0 0
430 1 14.192647262550311 4.378796190557964 14.510095101474514 0 0 0
42 1 16.196212806996314 3.105737990825104 14.663216259625845 -1 0 0
432 1 14.862979581115713 3.0343594162225256 14.599251989927243 0 0 0
17 1 16.89608689865392 2.8474163972897144 16.792483370975553 -1 0 0
403 1 16.202646777778988 4.069931557952007 16.709699760800248 0 0 0
76 1 0.1528206705832787 6.7965680692788135 14.735977497508532 0 0 0
55 1 1.4622598667477136 5.243118712682913 16.691114897323732 0 0 0
80 1 2.3157642989399934 5.653114082670061 14.768335546809041 0 0 0
53 1 2.1886222017197894 6.539315129120212 16.915165575581984 0 0 0
51 1 3.462068007564615 6.606785247524414 16.60198695172233 0 0 0
177 1 4.239634321949755 5.283928423679011 16.622798456759877 0 0 0
183 1 5.691042362838317 5.239976214530622 16.572509042214513 0 0 0
181 1 6.31241268042533 6.415817483365004 16.661191767183382 0 0 0
330 1 7.843974845851609 5.660170923531423 14.581931402843237 0 0 0
208 1 6.404709550884223 5.674015657670401 14.650718647311042 0 0 0
179 1 7.706191740576254 6.564721753416102 16.57677227423723 0 0 0
334 1 9.917930483618289 6.794386612837647 14.30492918741318 0 0 0
332 1 8.476749061269224 6.852622574417683 14.337163836926566 0 0 0
311 1 9.899884214569328 5.314536243403732 16.478976408133367 0 0 0
309 1 10.610393398878253 6.488769220484734 16.436434609120163 0 0 0
336 1 10.673164609353089 5.612646732226782 14.458100532817726 0 0 0
458 1 12.006400388798292 5.571296867931448 14.677745246441095 0 0 0
307 1 11.923861161279216 6.448479341253457 16.60679144062067 0 0 0
460 1 12.804494295405256 6.800140054492939 14.534389740055055 0 0 0
462 1 14.15999064075432 6.778487405930718 14.488034159878486 0 0 0
439 1 14.041259118432022 5.263670002992131 16.54954023360438 0 0 0
74 1 16.324390376992703 5.642476266886048 14.766375729675953 -1 0 0
464 1 14.886173862566933 5.581524770969981 14.512831860684507 0 0 0
49 1 16.951379325549276 5.348314632142723 16.931151073940576 -1 0 0
435 1 16.239366799547845 6.540497760865182 16.84940746298406 0 0 0
110 1 1.4353770641511634 9.262637748345321 15.04247425848975 0 0 0
108 1 16.927413618936757 9.23088411442327 14.815608949576369 -1 0 0
87 1 1.5218992918814236 7.726408794317828 17.003798416843686 0 0 0
112 1 2.1801635078314128 8.04280996254393 14.875634652266507 0 0 0
85 1 2.209370834386981 8.99358535014219 17.04379126186942 0 0 0
83 1 3.5343576765349494 8.964392485068613 16.819761219930086 0 0 0
209 1 4.21104564419569 7.809544050309444 16.65354137368295 0 0 0
215 1 5.608375134834206 7.643554950903938 16.636174876741144 0 0 0
213 1 6.2815996648961985 8.909420507112529 16.56470630721445 0 0 0
362 1 7.832078660236481 8.097659908826406 14.447860054156962 0 0 0
211 1 7.707212295321426 8.988087248000332 16.31252789674018 0 0 0
337 1 8.324573570822624 7.755912232221711 16.5410155053384 0 0 0
366 1 9.86936410897955 9.369334455029607 14.337030085559626 0 0 0
364 1 8.62079466480318 9.350770274479457 14.37866096332153 0 0 0
343 1 9.774904891253549 7.719427271704706 16.36501730474098 0 0 0
341 1 10.461402159699338 8.887917025697403 16.329449694343406 0 0 0
490 1 12.05389817668767 8.022877776639323 14.458233152015458 0 0 0
368 1 10.599496000394415 8.05601354513089 14.439435573638779 0 0 0
339 1 11.959651261594784 8.894027551354315 16.39266947132169 0 0 0
492 1 12.672982291268625 9.269044814711464 14.411598047466175 0 0 0
494 1 14.098351268479108 9.304103947497214 14.513540020632558 0 0 0
496 1 14.853286274251383 8.02930453892326 14.45019895340263 0 0 0
106 1 16.214950869475665 7.991226802440824 14.758100359111964 -1 0 0
113 1 16.801055299210724 0.4183134499061745 16.746362883280327 -1 1 0
22 1 1.1853709102360634 1.9269832568429128 18.882058112243847 0 0 0
24 1 1.8327588571590605 0.7561798250438402 18.93161435319221 0 0 0
146 1 3.1450577845348318 0.7693519569758819 18.949454818998493 0 0 0
148 1 3.877353511237004 2.0461313454425962 18.71478968949424 0 0 0
152 1 6.096133262296837 0.8398710240385802 18.528564966778053 0 0 0
150 1 5.301592570111192 2.0434683795149535 18.470344191474826 0 0 0
274 1 7.481121978121445 0.7917803700862676 18.48708535295389 0 0 0
276 1 8.08900300793588 2.0098607785742653 18.687122154973657 0 0 0
278 1 9.5791967295835 2.0016761702928996 18.597810123916332 0 0 0
280 1 10.240731139145781 0.8096131864903324 18.365819451321038 0 0 0
371 1 12.02724591445784 1.709458776525044 16.431536555490382 0 1 0
402 1 11.719238117621375 0.7178878206241213 18.28672125382224 0 0 0
404 1 12.467671521636774 1.9363679704311323 18.4906206475164 0 0 0
503 1 14.067901004835363 0.4229106311945983 16.48091771689946 0 1 0
501 1 14.833632411163395 1.691218397641589 16.734380557625975 0 1 0
406 1 13.849816150215647 1.925941397674659 18.60236003224089 0 0 0
408 1 14.634892016907406 0.7902300594170708 18.627097555465028 0 0 0
499 1 16.19609988670021 1.6382252332583926 16.752318357827562 0 1 0
20 1 16.507178426884757 1.949169370484167 18.910923038888733 -1 0 0
18 1 16.008375560152516 0.7714241865645256 18.755380873041673 -1 0 0
54 1 1.066863737891762 4.469162993677833 18.736805635431182 0 0 0
56 1 1.920891702658669 3.133627167484958 18.93189843397466 0 0 0
178 1 3.1396139633237587 3.238373222012403 18.763014486377152 0 0 0
180 1 3.9339041560055925 4.514456574831108 18.75014710659 0 0 0
184 1 6.055987275971056 3.2498825322112728 18.450701621377434 0 0 0
182 1 5.34853027962541 4.576011614893203 18.721117929539638 0 0 0
306 1 7.529555311307831 3.155978966617282 18.460865228564586 0 0 0
308 1 8.251610812599212 4.352246310404547 18.730224374083228 0 0 0
279 1 9.888915034449724 2.8170210823913213 16.498636797335962 0 0 0
277 1 10.620918909439718 4.101631766742758 16.55784662451963 0 0 0
310 1 9.622650641281933 4.355160401959273 18.66161356396026 0 0 0
312 1 10.28624556720455 3.1540337501515268 18.622961336319527 0 0 0
434 1 11.671590818224622 3.1504241205118717 18.329935501818536 0 0 0
436 1 12.358925270330603 4.363290042189547 18.632644700763727 0 0 0
401 1 12.674110978533369 2.8628142045126803 16.514541950869223 0 0 0
407 1 14.118147875156803 2.893498325679546 16.553524958405742 0 0 0
405 1 14.73424084769581 4.039771562526727 16.517570783257952 0 0 0
438 1 13.671991689911897 4.411307297076762 18.722431616998332 0 0 0
440 1 14.40190192395934 3.1880646440302365 18.664949934570174 0 0 0
52 1 16.551467374068352 4.395753055883934 18.7461649369723 -1 0 0
50 1 15.825235820832434 3.2702288230517365 18.609810809925193 -1 0 0
86 1 1.1684207385443028 6.789895995531673 18.94967399360322 0 0 0
88 1 1.8896196835848462 5.6317100366194 18.880690405337415 0 0 0
210 1 3.2273532169550925 5.686182195322513 18.577818122129376 0 0 0
212 1 3.9437821004751794 7.032390970480703 18.628119853441554 0 0 0
214 1 5.308497559517066 6.974266747617165 18.757716229765073 0 0 0
216 1 6.0583207086106805 5.696517534186607 18.793699832814532 0 0 0
305 1 8.437270915499614 5.324150272298619 16.65124322365181 0 0 0
338 1 7.496138286098232 5.631144069956209 18.576169242439406 0 0 0
340 1 8.199033230461241 6.849498326972912 18.6674766174985 0 0 0
344 1 10.263698392370905 5.693917239899354 18.816506728332048 0 0 0
342 1 9.569196861435643 6.833225063001168 18.46161673204606 0 0 0
433 1 12.666574371028169 5.220801063387285 16.658341243762074 0 0 0
466 1 11.687444657589184 5.557884657081724 18.694302826981833 0 0 0
468 1 12.380339166703505 6.769064594811455 18.71212751150398 0 0 0
437 1 14.799127677714086 6.450989919935135 16.43492095203507 0 0 0
470 1 13.711616983108236 6.8010511604566295 18.454440348683107 0 0 0
472 1 14.384693546401389 5.643887915990246 18.63751888627111 0 0 0
84 1 16.57370073961664 6.784387804613585 18.914105908165773 -1 0 0
82 1 15.857949286591593 5.658209594956377 18.834090093214684 -1 0 0
81 1 16.892926359351467 7.686836223532869 16.956806222793325 -1 0 0
118 1 1.1797389336299033 9.262873413226497 18.844317347570453 0 0 0
120 1 1.9293394137322797 8.108366194966424 19.038297894833143 0 0 0
242 1 3.2062714278553917 8.089951057663958 18.993995082309887 0 0 0
244 1 3.976565506566369 9.38400727693651 18.968472621917144 0 0 0
246 1 5.3943072965445875 9.388344371250463 18.647454295429043 0 0 0
248 1 6.041617456142118 8.190088300905478 18.63270048327133 0 0 0
370 1 7.462721013466662 8.135005113271683 18.51825564406527 0 0 0
372 1 8.217742386921378 9.275275301855661 18.493483092863038 0 0 0
374 1 9.587644278759168 9.259198771890619 18.496003100115708 0 0 0
376 1 10.411017581643975 7.941072726252738 18.353282545043054 0 0 0
465 1 12.658303630355377 7.686589581198573 16.486081000247836 0 0 0
498 1 11.747290278992262 7.915609746860917 18.535646689776243 0 0 0
500 1 12.508888414338859 9.25754107663064 18.49690570399919 0 0 0
471 1 14.088542835048163 7.714290101721311 16.42507282552095 0 0 0
502 1 13.943211338744735 9.363911417275572 18.45520778069872 0 0 0
504 1 14.55222900633947 8.068114162899814 18.629283380011827 0 0 0
469 1 14.756345897912038 8.954408472835729 16.496864578545985 0 0 0
467 1 16.141270669932304 9.003021899629697 16.871922266789205 0 0 0
116 1 16.652788242959666 9.259278787656017 18.892696993451132 -1 0 0
114 1 15.938611538247983 8.117932736051412 18.797436195474226 -1 0 0
443 1 1.0333467016520466 1.0440462568006121 20.909008400511425 1 0 0
89 1 1.7066795864788675 2.288916761075161 21.075377330108914 0 0 0
61 1 3.91317509580833 1.0335588845633836 20.881261895973605 0 0 0
95 1 3.152849372761847 2.2831657150236495 21.015486997910138 0 0 0
59 1 5.248339959899158 1.0647299458197867 20.49209229261606 0 0 0
217 1 5.917884186117235 2.243790537589842 20.44709461740181 0 0 0
189 1 8.146014608727361 1.0438097768843657 20.695230324078807 0 0 0
223 1 7.331912914633998 2.241477023302892 20.68289337655904 0 0 0
187 1 9.526937551537767 1.0706390036195639 20.707682881657718 0 0 0
345 1 10.176471740894849 2.257095118994222 20.759908007623103 0 0 0
317 1 12.351848841345374 1.1261049015785454 20.737093061106563 0 0 0
351 1 11.600506831309366 2.31855430113735 20.582863286629838 0 0 0
315 1 13.698439947529572 1.0958873144926127 20.615851733394532 0 0 0
473 1 14.521618589258098 2.2671773735401937 20.578602565251394 0 0 0
445 1 16.512715794961238 1.0811169225834147 20.79356947459961 0 0 0
479 1 15.78115173309809 2.2527623151275655 20.82624769779865 0 0 0
475 1 1.05121571862591 3.459764332342828 20.869835196926033 1 0 0
121 1 1.7326023884350121 4.72209096036885 20.805453952688016 0 0 0
93 1 3.786974208629894 3.475658182525649 20.84549393026101 0 0 0
127 1 3.0762254389602814 4.678690665118596 20.788103273555258 0 0 0
91 1 5.237511487868377 3.581804183881747 20.633937612146507 0 0 0
249 1 5.8396137620879385 4.803090579698534 20.744019817204443 0 0 0
221 1 7.9844850595231085 3.461282703585857 20.640359321101826 0 0 0
255 1 7.278012674854637 4.7663244837431336 20.648292843622553 0 0 0
219 1 9.457619279503753 3.4433959859332295 20.66627065550216 0 0 0
377 1 10.141900275340037 4.761125327093993 20.786991093201507 0 0 0
349 1 12.290191248806767 3.519207703527651 20.61461820039328 0 0 0
383 1 11.593347483143239 4.758653148281375 20.687851356266357 0 0 0
347 1 13.71675383851404 3.4869715637821113 20.630765672848455 0 0 0
505 1 14.318728655735292 4.817385354316972 20.76292826400399 0 0 0
477 1 16.48072423789725 3.4256310234837484 20.950445279955993 0 0 0
511 1 15.724897681047672 4.736738681892217 21.00690843399458 0 0 0
507 1 1.0700095146230355 5.949620935414228 20.926293821119064 1 0 0
25 1 1.799027373488362 7.214837795658873 21.238296549099292 0 -1 0
125 1 3.76254448580514 5.992955874152004 20.880033192264225 0 0 0
31 1 3.1895970545057812 7.231039184201251 20.956392286415934 0 -1 0
123 1 5.176213090945544 5.9317671716733935 20.740891105191125 0 0 0
153 1 5.943657147898957 7.137417966807987 20.705304308232435 0 -1 0
253 1 8.044899869155838 5.9687869375103295 20.673417499759054 0 0 0
159 1 7.300475203278475 7.214610566302003 20.606998453099735 0 -1 0
251 1 9.404523864708892 5.923555241431183 20.789979537352544 0 0 0
281 1 10.108871983333659 7.205191890014015 20.686735929406893 0 -1 0
381 1 12.371280286221634 6.021382611807735 20.65298198208854 0 0 0
287 1 11.58278878121181 7.167296437131924 20.60908972806386 0 -1 0
379 1 13.642633786989657 6.040769548546864 20.89496913950976 0 0 0
409 1 14.389147294017983 7.2525505910981645 20.653378098095708 0 -1 0
509 1 16.478320532343943 5.958197118084058 20.949000204217352 0 0 0
415 1 15.851466044177911 7.197596663336846 20.867948449579643 0 -1 0
57 1 1.7804969890098978 9.659781285204364 20.958173627511584 0 -1 0
411 1 1.1235538919130879 8.530655382484559 20.939041593033174 1 -1 0
63 1 3.1321403474167524 9.620009686051647 21.01816632186587 0 -1 0
29 1 3.893581910304058 8.413897422454742 21.022107931290538 0 -1 0
185 1 5.912321541663344 9.720121265229976 20.65460707587274 0 -1 0
27 1 5.1890376587264395 8.475862456749674 20.580326165697876 0 -1 0
191 1 7.265216849385369 9.660029095857853 20.47291617707058 0 -1 0
157 1 7.9962951781163225 8.436123426406763 20.563166106674743 0 -1 0
313 1 10.206718847372969 9.656112918474973 20.556402901300174 0 -1 0
155 1 9.452558872201356 8.395396146752347 20.548256995566163 0 -1 0
319 1 11.602564785323274 9.627486691343464 20.537202129617484 0 -1 0
285 1 12.314117459021547 8.385156053365192 20.55497914022108 0 -1 0
441 1 14.359831294166948 9.530074831402915 20.745076291239517 0 -1 0
283 1 13.677200487253833 8.411234666126154 20.719631622552036 0 -1 0
447 1 15.80059257626211 9.545245214317063 20.79368027821915 0 -1 0
413 1 16.613497013709605 8.397880028919827 20.874309456686316 0 -1 0
28 1 1.7443422897591894 1.3004355651817852 23.237411582276188 0 0 0
26 1 0.9744986887200703 0.17527552071300473 23.09900166208474 0 0 0
30 1 3.117320034997136 1.2837266787906143 23.203237304545326 0 0 0
32 1 3.801942811002596 0.0591555345436492 23.003227248457893 0 0 0
156 1 5.7172520338773625 1.317906566988551 22.55263902859335 0 0 0
154 1 5.090371781481475 0.19615804588128297 22.57869345223441 0 0 0
158 1 7.16829374532238 1.2132028888085828 22.52854538809305 0 0 0
160 1 7.908538410750092 9.737191916821132 22.49223116196257 0 -1 0
284 1 10.10706262913896 1.376519777080425 22.743996708429776 0 0 0
282 1 9.35578452211013 9.801257754118762 22.662158302505805 0 -1 0
286 1 11.508472615268198 1.3298680713578146 22.676552857938635 0 0 0
288 1 12.187783544002963 0.15371510139953048 22.67108720249209 0 0 0
412 1 14.329538549616682 1.4130448474845638 22.69024399965323 0 0 0
410 1 13.600460470539941 0.16525892816217813 22.78842030989527 0 0 0
414 1 15.754120933159003 1.4249652899808858 22.89347860447524 0 0 0
416 1 16.445418932626886 0.21384057273114823 22.817973872396067 0 0 0
58 1 0.9940103049390091 2.4653737400936837 23.092309088933515 0 0 0
60 1 1.6528267842602427 3.661467577227421 22.93359282800542 0 0 0
64 1 3.751666848135159 2.469147576265461 23.00421025405995 0 0 0
62 1 3.055149562036132 3.5790665482968125 22.81245495872173 0 0 0
186 1 5.082528312007479 2.4700766140850603 22.62145308556633 0 0 0
188 1 5.82038427503225 3.811834855759017 22.74290554531997 0 0 0
192 1 7.927262800557306 2.5128137137971387 22.70895210524596 0 0 0
190 1 7.227467516685669 3.8173468153958585 22.58641243234282 0 0 0
314 1 9.253737447267257 2.552465667290845 22.742566046184542 0 0 0
316 1 10.043726226213286 3.807098309112079 22.737886164843374 0 0 0
320 1 12.180980473270749 2.5602109309906305 22.66375778782063 0 0 0
318 1 11.476994353761969 3.786025886525923 22.64881045206112 0 0 0
442 1 13.590887280103997 2.613969501969598 22.68331291994424 0 0 0
444 1 14.320195665481199 3.8339770659927086 22.89162010312169 0 0 0
448 1 16.383198665219147 2.5913863122289307 22.966216086609112 0 0 0
446 1 15.628330720956672 3.8557524946337915 22.921146460318546 0 0 0
90 1 0.930573559012727 4.924568184071537 23.023961673375705 0 0 0
92 1 1.5842744171703793 6.2120118895566385 23.142103316495707 0 0 0
96 1 3.696426285314199 4.799590535380363 22.916721634294323 0 0 0
94 1 2.897146616121349 6.120504226463461 22.90580076631141 0 0 0
218 1 5.071638559914679 4.968653472459061 22.750348088174256 0 0 0
220 1 5.814040248734998 6.160803598812409 22.796330258575594 0 0 0
224 1 7.999232165651142 4.935699723633263 22.825319295126313 0 0 0
222 1 7.206374659493635 6.181317160937144 22.55202359381868 0 0 0
346 1 9.343313063852074 4.928103471774944 22.747691225326236 0 0 0
348 1 10.055374917795762 6.203239011307011 22.73624938530952 0 0 0
352 1 12.202719380825544 5.016681628195448 22.741726463298054 0 0 0
350 1 11.449996011753756 6.255765390000858 22.634574754215173 0 0 0
384 1 12.197104144438018 7.467699804405683 22.70650103070378 0 0 0
474 1 13.553899829680018 5.067372143953713 22.843973943555966 0 0 0
476 1 14.222008199733846 6.296126961423679 22.977475898446965 0 0 0
480 1 16.393501627048067 5.022447014131531 23.044868690699676 0 0 0
478 1 15.77540347180165 6.313275600714844 22.891863540752762 0 0 0
122 1 0.934978192882315 7.456089995116202 23.151202761135636 0 0 0
124 1 1.624106062541201 8.75859113315487 23.335925614189684 0 0 0
128 1 3.763590137992116 7.3646916377650475 23.016653972340972 0 0 0
126 1 3.0365272541068897 8.709615357165521 23.03513285265193 0 0 0
250 1 5.09888577217266 7.394090628585022 22.66462646531778 0 0 0
252 1 5.776692923550865 8.518097860282134 22.594691509504052 0 0 0
256 1 7.908358822506544 7.403328959668455 22.673128622184812 0 0 0
254 1 7.165424879076151 8.511655355235417 22.622956463768375 0 0 0
378 1 9.296378751937706 7.3290075427948675 22.643194711587178 0 0 0
380 1 10.070369061764804 8.541723070548242 22.61226680399293 0 0 0
382 1 11.454803616393551 8.647687288977439 22.510408739773144 0 0 0
506 1 13.599994773463601 7.4880497328652185 22.641176174717977 0 0 0
508 1 14.281958821471092 8.82282841819742 22.73177836008598 0 0 0
512 1 16.452252641451828 7.495906136224806 22.878967156317902 0 0 0
510 1 15.653303435718462 8.695928231765397 22.735093255860495 0 0 0

Velocities

33 -1.8856168191033886 -13.637675034619706 -0.8489429172226275
419 -12.025389359747372 11.811249123812631 5.217487398486538
39 -23.43159019304051 -7.265093650053565 5.34398399386178
37 -19.086665968661443 2.5115520000947127 14.76401880256229
35 36.27287227430505 4.026616379470037 -14.177315190466595
161 10.686832696799073 -3.037533699030881 14.998762965204623
167 -19.10740610158035 -0.7922992998783752 2.5826013676655277
165 -13.903742618464765 13.078460234389219 -6.322784928367198
163 -3.569324773207059 -7.457453983457933 -30.96358465712251
289 16.70767238941222 -6.85167564954055 18.197547026194872
293 5.338207600598772 1.0459909832455971 16.67863263696612
295 -5.500860153986571 6.880973686393773 -8.087093839539731
291 -0.5974089305411924 -19.70668599643113 2.4573588821693515
417 12.945795759075992 3.0105531630501066 -3.7022799651465093
421 -33.74879560532605 -33.91965406472843 -8.89303027822741
423 -4.184995000053121 -28.128491026579386 -4.772625433929615
65 -4.005075951211818 28.57487935567644 24.34508467948786
451 -8.109993661554405 -2.2339555894545846 13.220360346544135
71 1.1200196693403495 -6.175472373275606 7.931814191703972
69 -5.015891231235999 9.31991526822047 3.3274371476450573
193 -3.717649385596522 1.991578871044615 18.137088229396294
67 -10.85693302443676 -35.827674822215435 -9.200961578668467
199 2.5298450425104786 24.20195228422 -4.572997281564181
197 -6.531758507389617 -12.652642400899175 -0.045969500197659774
321 -15.285494671552769 -5.99149448795518 -17.45177947007262
195 -7.409876400209897 -7.985173260197944 -24.86765659537213
327 8.351782237093284 -9.419316047343246 -15.546484492233835
325 29.324413297035377 -0.4682134320486437 22.191250717539372
449 8.762817217676602 33.07967724823148 1.8834227062889195
323 14.078613231797323 12.463030308450767 6.995435050210567
455 8.72994550104742 20.651595034537063 15.53358701414911
453 5.657019166702073 12.544020250870659 -4.642722903886744
97 15.742702485090804 -25.854943624531167 18.91363207037154
483 -10.437120051730554 1.4330619848637485 -27.251567000049544
103 -23.103139514546857 -10.012272120660425 23.556447444594696
101 9.829619254619114 -9.175097736983883 15.267289444000445
225 19.1436039147946 1.7896590434893187 1.7896965522085113
99 8.71582174656139 -13.785954826785451 -21.024612060820896
231 15.772422274145006 25.024078166629632 11.233455804439835
229 -16.527395692476613 -5.572389280888508 -3.344258824818293
227 -7.075721028495992 9.218326455991882 -3.617809769908806
353 -8.071606022093903 8.827817687604918 -9.957836806981781
359 -5.141827053890079 1.648227994182484 -22.42605572215493
357 13.062946260678531 -32.83422951267051 -24.54832091148191
481 13.915701586322593 -18.230361920911555 1.2159467442224594
355 3.699679224509084 -8.406712736318983 -0.6706987031917843
487 -6.342492214667442 -38.461579897082 -7.060863359856853
485 -23.018192212098203 -1.5998951468890854 -10.427435930989843
1 2.579358443224653 9.70332522159696 2.604668395357754
387 -16.578704771009892 -2.819488404091506 -3.5349136923928106
7 -8.29077332226102 1.7655475896838544 -7.539326110688676
5 -1.195791830888153 10.967638429357034 23.416654029781917
3 7.580452200925738 2.50351425597427 6.169406546057193
129 3.569994834009009 -8.9886387421981 28.789317261712682
135 5.221288936598458 3.8737779854680348 0.614775477765536
133 -6.974590670570133 0.9231981134618648 -0.4416712343115176
131 6.66805197758115 -6.973346558249704 15.723871584454066
257 -8.220964017918108 8.989572083050579 -2.8620160645799277
263 -3.4779687714754646 14.456617325017609 -17.926600986918107
261 -6.034568384698339 39.48790188070934 -17.117766329949635
259 0.29648426892172547 -1.0208753061377798 1.3011578249467735
385 -1.525937209809593 -0.6679134173556937 -11.369795517037188
391 -12.560812813572081 -20.35637442989986 18.2050607073072
389 14.146574136794122 -11.348225185221548 -23.427597388656068
4 -6.771560959770489 -3.089637588856902 18.485534260408645
2 4.700615313116112 13.536256664665306 -10.616747603072096
6 -16.723187853604948 -5.901991721283826 4.942986022075648
8 8.416673760755941 42.01929145124172 24.006907046646436
130 -10.283818685203087 13.369522090805601 -2.9646037693750564
132 -15.728348018137742 8.139412553200541 -7.242215004510234
134 -11.729268206468301 -9.479154296806094 16.635582919627012
136 7.684757581765133 15.78851969161181 -10.170809042723524
258 -15.868420995279877 12.45414911099133 -1.6983075102910847
260 28.746957883158913 26.309805416909438 -21.126861691544665
262 -10.724539653204586 -5.614565893642683 -14.933863380327589
264 -1.238369028508955 3.2753295432694354 5.490161760872217
386 0.8289945056409815 -18.394026571193052 2.3221867541032855
388 2.754338597390193 -8.27019498263047 -1.8235084812970286
390 7.305141810787747 -22.199730528098097 11.082839587974245
392 -2.7060767496141924 5.319162508038909 -17.997212144653492
36 1.6990520583112398 5.340469059124588 -3.3818718141314936
34 12.90840921207711 -16.789309478929663 -18.39228453459357
38 -5.2434328323719015 4.191629505014664 -17.259084867567683
40 7.393118100739544 -6.115745779909074 1.594066771137074
162 13.258507289932128 -5.579008464755637 -1.265908483940614
164 -11.562169036845283 26.614886835027768 1.6762893080598356
166 13.105746826616167 7.553981185429417 -2.882289879332181
168 -0.39777175092501876 -24.491614539468163 -12.094107244291003
290 -2.6908873604521895 -6.920139582143521 -11.150200352664715
292 12.990594380059003 11.969880356232155 16.498502019983636
294 -6.818584713803859 -13.617486794368784 -13.899732757245971
296 -11.937589991608688 -1.490743527462934 17.22633732966027
418 12.185709907695365 -2.382858239287196 0.9869159837998533
420 21.03710358737772 -0.6080271025050096 -2.93395259167877
422 11.295445936212118 -3.8886963922824274 -1.2772420391370038
424 -6.937771210549344 -29.22194845923281 4.776171732135703
68 11.779420357219395 25.481841911099487 -5.152145559509083
66 5.41018890364372 7.893217390087707 -14.688665573279156
70 2.149944813354051 -2.7229915057299072 24.321454289257115
72 7.3265538832561505 -20.5553480895683 9.294745501834084
194 -3.8548230777738035 -3.708109266588919 -16.572297734436383
196 6.8496351673122655 0.2046552629710101 3.1727785865340428
198 -0.2047253560563242 -4.352736104183088 10.316193256739734
200 3.3199465232816148 12.410306712765868 4.784453886475692
322 -7.463633780474176 19.585134872731974 -20.730120893898544
324 -14.628499298250745 -15.413703706265254 9.466776889828568
326 4.359237164987822 34.2890776357746 8.716038954281213
328 -12.540199927146727 1.5761010199854164 -9.677145374997602
450 -23.289449187900185 2.4485639093066505 23.193154830370233
452 10.445513469100165 -6.450804761280593 1.639825240327217
454 23.65549989654825 -1.1101832444982707 4.526440950540959
456 8.18407052634798 -11.82016154073472 -6.705167276202494
100 10.788711169201322 19.166890612463053 -12.97105970847916
98 44.85751674793729 14.299471690274641 -19.213298614719566
102 1.0847682330291866 -0.5419100817106794 1.6880479007225684
104 10.029078293930993 -26.872312860318317 -1.7587979545625205
226 4.951171662895637 -7.2440568038869015 -1.535617908486095
228 15.281450725788693 8.880148473367836 8.850847202919773
230 -18.39861118982592 -19.525659971713175 -30.419019694388822
232 -5.614858538690355 -8.957354079239497 -18.658455658074576
354 15.19192303069135 14.824389943458586 16.140280417761193
356 -11.26021006901019 11.802229086374444 2.497066852779763
358 16.786935601279197 -8.18291866997573 6.05370706341107
360 -13.725573508863903 -0.6053319818106365 -1.3465657299078129
482 7.268946531379451 1.79020085581388 5.639422276291347
484 -9.673765878597575 29.488304373383432 12.549587155488993
486 -7.10768060555696 0.22269289588263513 7.705411557561832
488 -10.525254426968917 18.260445963442486 15.518173446557324
13 -19.194722680249225 21.732559939950168 -2.5849781712690905
11 -6.65291474718905 -13.88204160393116 6.996464216116169
169 -2.2165209278991886 -13.575127259166132 9.398052750926853
175 18.870512257265847 -11.411382720852268 7.630477399133805
138 -22.169299771923978 3.0226814838483995 -11.236274793852116
141 -13.679203505734902 7.07537515559685 -11.00247271309068
139 13.827373462302605 22.93588824119359 1.8146198537060054
142 -9.428627953771414 -11.212556269017957 -7.107959064730156
140 -17.147353198587272 29.2000425824349 -23.472886802453242
297 22.319477896128536 -0.643636785499395 23.118470025071556
303 -5.479214316582742 -5.400605221431965 15.708633126214218
144 22.56051138042441 -8.85570523891764 17.255303331374293
269 -19.83412384509836 0.7363299472674399 1.677508210671626
267 -6.390201905549787 -0.49528424873080046 -11.160870919257798
425 -12.675389932860082 4.949915547463462 -12.771030856757362
431 -3.9431991423543487 -2.7854997519785476 3.0603607123863377
397 -9.913617527257198 -18.31701804469485 6.387447947478775
395 -8.330041872381198 3.100295127805361 -9.41544092171176
47 10.743220895868545 -5.578061212718424 13.335428222646105
41 -11.910631063794217 13.913550487792023 11.1762671574934
45 -11.861370819511231 -9.216983430562067 1.4091348528197638
43 1.4772356527467443 -29.480536977268425 -14.070906010740643
46 2.041186918381785 6.823506525275123 4.813272819284772
201 14.043006460921896 -12.511696400185977 -8.974398588441417
207 9.504971647442835 2.286469619463838 16.365028726857915
170 -11.939518585947992 32.798601409503526 -5.1144425080266105
173 -5.862755452434712 2.8503834978394824 -5.312071894576942
171 -0.909653705764 -15.032458464871011 -7.144810443380077
329 8.591693141090916 30.7121362967899 1.4312417942623148
335 4.000899421168478 6.824019430709093 25.46229554007075
301 14.763340526106848 -21.312752234309887 9.145136971438447
299 12.300669551909552 -0.3843227823504237 -5.723049484112918
457 15.131365460696436 11.050958359516155 -8.174545343907337
463 -1.985699448130942 -11.701830302004572 21.34620182823676
429 -5.70531214070495 -16.319473398896317 33.11154689862819
427 -5.958676392252954 14.871953272964317 -32.53211842341748
79 -11.091919579012421 4.658443604190615 17.724173283108843
73 -8.255765937611853 18.91052871172946 -1.9046194900000233
77 13.034627419980902 -10.695783946074739 15.838302134683088
75 9.513310707956615 -1.2776197814509156 13.984799975503186
78 -10.76778498220873 17.76341194251287 12.639227428552045
233 9.922086836087681 10.07493007476644 17.776847059959838
239 4.066051647604235 -8.810516355590218 -1.4765784830775777
202 1.5277891367054852 8.909513630251611 14.370172071141106
205 -5.565682593354381 -1.2049499077235641 -14.75370804545767
203 24.693405989807825 8.999815964154385 22.777676903628418
204 -6.294860704570873 5.316359288883519 24.25346616568053
206 -6.020132843381831 -6.187929342242708 -9.070242110579253
361 8.180033435532577 -2.958138516487306 0.4199801677509644
367 3.9066040153307937 24.204475402280544 14.451706732581483
333 22.731470382460184 0.8565057214099085 29.529071812449214
331 4.271418363555253 -0.015237090084831787 6.043323692903543
489 9.713840536504748 11.738396131347452 -30.35347827647103
495 5.95143996028118 -7.6592614394573415 -2.5909086557224086
461 -2.344446680530174 -19.007647864745937 0.2439484152622895
459 20.213580113398805 -0.9882605960161006 12.37781248399688
111 -19.933990196441115 -5.37003793877027 -4.504300145921709
105 5.856727250606048 5.649495477153452 24.06628597326786
109 17.076918424054828 2.779125491077039 15.194011951317242
107 -4.00728550208593 -11.927194221806038 -14.327403104788733
137 14.097919561335583 21.844653135783904 -9.412814171735468
143 -12.738105668506906 -10.001009119576578 32.10517568743851
234 18.09335856491308 4.297881161126376 -2.5561618156108197
237 2.832104720297905 -11.836676266195061 9.49046878987561
238 -16.718703672459686 -9.559414727941967 -4.966092459363539
236 -12.958015882517268 20.315796922893966 -30.36169846294571
235 2.424822743215868 -8.614574028485277 -15.53583029568271
265 -12.567728338101167 17.66989553696304 3.230461261597203
271 -6.149928840423292 1.0114601261361837 -2.019189469823209
240 -11.935375122231632 13.806991505649558 5.162727003726053
365 -6.891666044031252 -15.341454268820822 -9.607762311505203
363 -8.907794367605511 13.112271654660011 -6.171752843234328
393 16.616232379763787 21.3394886722244 -9.512962935955443
399 -41.507021913987074 26.52667029183445 14.236581295504301
493 4.213530395527288 -21.200196582790085 4.511773517631376
491 16.81824849356852 3.3115487243046973 22.009920384021793
15 -16.034787269690103 15.57003516123105 -9.015909036056762
9 -5.981312978586272 -17.618192592207652 25.176855290693627
14 5.360990648409009 11.076488052231833 9.887320821056417
12 -5.972675399971719 -8.213599056809002 -0.8981698756523306
119 7.696935703698179 -1.8779363793536137 1.3855603427530503
117 2.092357358940887 54.995546339190064 18.322359112425964
16 17.509770520279382 16.12467369744238 1.935871658959246
115 -9.144899268742776 2.1270291414410867 11.887401006184193
241 -3.3110615228972096 -0.6035684435892049 -26.554632936396324
247 7.440985657112326 -22.06996604271425 -12.381532415866905
245 -15.842700601247692 -9.910539329181859 -15.202422223076397
266 8.846882119691966 -20.672092230236675 -7.266950138076137
243 29.28693749296272 -7.10115743655034 -6.501565912462055
270 -15.931141272747382 -18.06501399336897 -4.678790180908366
268 2.5381544234527165 -0.2636374235125286 -7.27293800262697
369 10.473105692656128 1.9986765047967445 -5.4463856513536175
375 -15.421815579066553 -7.560583924579604 -7.470444412840534
373 -3.7941947260243944 -18.271613792873996 13.785653267145303
272 -0.8865907328711532 22.100243311903846 8.320579277893746
394 11.17150669888562 3.508707217686682 -10.245977035020829
497 -5.507717512492116 17.096443277520393 -21.8951758929958
396 14.914159610994982 3.9468730639364784 5.63633107124425
398 10.759858721845625 -46.51981312157239 7.586372011821609
400 -15.067619957482362 -5.702555209023882 -10.754329730251007
10 0.1658033053549248 -2.3242576552854475 -9.946898208974515
44 9.544756546403681 -1.1173971215687701 -14.903968148718041
23 6.925625338811694 7.221648190487792 -0.05076138415297212
48 6.143451369098322 -9.324582919648492 -15.080714918067233
21 -7.388792842974373 16.028166183613905 -4.623111936275771
19 -24.061212149127762 -11.912422089429437 -16.05260440086377
174 2.3603545741898904 17.865792448825523 -8.837772991367961
172 6.204617022665589 -24.694618134515398 0.8659970892271432
145 -11.341640418028055 -21.53138507448968 7.989251845621154
151 -12.248999804261052 5.517509461420791 -5.060341637314604
298 -2.3620075515447345 -11.56258980405776 17.48966719440816
176 -18.758061072854495 -6.908152706264872 5.722356150243229
149 9.56397289731363 -8.826769926956928 4.237156435062875
147 -14.117936958821645 -19.626190168656414 -39.189515804529236
273 4.57962465415164 -19.479772334050647 -0.16023719272430278
300 -12.52094164748111 20.605091639705204 12.669221595371793
302 10.241468215637282 5.232544739243162 13.731052174131786
304 -14.1847831958841 11.596270909092297 -2.092320353797759
426 -10.829119215316162 5.834636667123609 -0.9886426972987196
275 -13.84717604838269 -5.7511565737874735 5.883654720224527
428 -16.35735318157405 -1.2444611572820838 -16.04832891317693
430 9.00931101873585 -14.977531702232314 -12.366091537903962
42 36.320856015654165 -14.932447415897915 20.36410361297127
432 14.572453443624017 8.82615135183361 -6.4952358133568255
17 -24.16472063491947 4.190753099603514 -21.225343112832455
403 -17.501953732252947 10.002196806147582 -18.89688404383719
76 14.432918918788705 30.74671923876922 -15.516227983086202
55 -1.8705098870519 30.547912694243955 39.12994379442817
80 5.101169960078501 2.802939429618148 -3.2959141038608855
53 21.072913203865564 -14.776588911382621 5.016278890323545
51 13.373262882827937 -11.936011130153803 16.553404021866317
177 -8.603151424659542 6.969312720068441 -7.954561083236455
183 14.45886370499146 -8.336745744967017 -6.010668418258884
181 -0.018162559089707053 -2.3154122220982756 9.799512368137366
330 -13.24937865956987 0.5359540433091441 11.113016630394148
208 -13.902492235057323 -20.592671647197722 3.7819161947188933
179 -4.820747617932955 -21.32226422507504 -0.5619657477626607
334 0.40129289167427074 -2.531771847981262 -12.326874235430708
332 -20.31266635324972 2.3353237799510707 -18.044567374092146
311 15.938271820474982 -8.790791462223368 -23.921604055432493
309 5.145495952004051 -11.833466188758232 -16.71007394658167
336 7.701159792807921 -9.183680669104868 -2.4803743841955987
458 20.8951922598739 -10.001964039296153 -13.974384741308361
307 -20.594131325746275 7.112191907036206 -18.84260871871689
460 -5.351250018177624 -4.632029415857942 -16.24690672444931
462 3.3590559520509737 -16.143192379297822 -10.609532483435943
439 7.843500047298928 -13.767659076904204 -12.180913593620943
74 -8.480204622022988 -7.04268311725153 36.866874741238064
464 3.498293110849264 24.346800784363303 2.1823160404177546
49 -18.105726064735553 18.45331856295152 -12.15186421690652
435 -2.2334529251046957 -12.537216967928364 -7.978019971186129
110 -0.4151523753269293 -3.0039506326593157 23.316458175141157
108 6.862950479686219 23.028729120448848 0.5252065694267714
87 -10.205735988781075 3.3806263370767535 0.7773117808047769
112 -3.196722351253776 5.109364137288563 21.077961975925902
85 7.206527548654972 -9.599678659339421 -6.2648663158903135
83 13.233163648470898 -8.915579153077529 -1.0195716500462189
209 -14.310145247315194 20.416311676041932 -10.663716989193414
215 -2.4327639029762818 -2.4069213379785923 2.9356507635007945
213 -15.279032912131088 26.1694677373315 8.903480719327783
362 6.428385721565214 8.81699358826901 -3.11138472904485
211 -14.032184662537528 -2.7882084800035414 -16.997398264801312
337 16.28116936490446 -6.174220403812408 -6.478113462350382
366 1.8537445082628032 -22.013651887711834 1.6455470874932834
364 -8.56730670993511 -0.2138009488933719 -13.91917338229395
343 -11.926074589819176 14.84895955989996 -7.786751484518579
341 -13.80793841650757 6.603797986143403 14.363031238932045
490 10.787263132434163 6.536386486964889 24.196273646071415
368 -4.071971499480493 -9.770501904811402 25.83697107316594
339 2.0642240363435764 3.497123589594203 43.05899988977513
492 -2.9265875010812747 -7.452399780390306 -6.50431875295667
494 -1.7736304644646768 13.455354969029184 -1.9368213269293757
496 4.8251358039791 -4.903895148687455 6.258924508650985
106 26.40419934873208 -9.142530037337051 -2.4079958720341192
113 10.131065288364004 19.853095317958733 -9.722354628059707
22 -23.787164875552584 -6.733293121884849 18.954266168898727
24 14.9182942107852 -11.421231494922164 2.021182486425182
146 -11.240528456099684 -0.22033217970591404 3.3592461709362818
148 6.114212598274608 -20.086600179093463 23.255714289547466
152 -7.967084670809 -9.498846835868177 -1.5007156606583727
150 15.345910761837862 22.366700304234637 -0.45405084199872764
274 16.415183536460177 -15.790629436051002 7.6105190524451345
276 14.475989020353165 -1.826433606111888 -4.655196565567164
278 -11.447886798773304 20.750644260068068 18.056097354831135
280 11.426173647111904 -16.614953520260176 8.342744979601925
371 -4.932901431121721 6.939284116679789 29.180992051739818
402 12.734726306835768 -9.93580135833681 -6.445259228306695
404 4.733965198506146 -11.984998566246936 -6.77298002125628
503 -2.1832652542287487 -9.583193628540657 -20.00983522510092
501 9.305072253942575 4.879049890243742 22.775186287642992
406 10.549993087705854 -1.5309817849873764 19.24350215835612
408 12.39198088643722 0.9327293183819827 16.700965593842923
499 10.5441134869062 -13.92314322314657 18.228467653567833
20 12.085437597164335 5.080665199897311 -6.673916079166281
18 -2.2684613375295237 -0.5432474658471191 13.72644658531077
54 12.636230109418575 3.4446539846124535 10.27646903219479
56 7.045874754931682 -4.569240096793525 -21.60474072880889
178 -8.627349450771797 -5.427598395910174 17.862734515361577
180 4.068793849940324 7.158019186822958 -15.336321963935019
184 -5.562201498502533 23.64584612158183 14.812394615014025
182 -7.797052061102616 12.36401182999893 5.677852444494826
306 14.418884776513066 -0.20661328983125102 -17.05581443983425
308 15.350767762491111 -2.732678805686537 -5.616951431949231
279 2.7833486223034014 -7.765727614906546 15.507792217173618
277 -1.0703494812574716 2.292886940305752 -13.735521224367023
310 26.94209775178709 1.898961812681898 -4.646401957906661
312 -1.873329820792563 -2.968018743443771 0.8602399298989813
434 -5.3934608713775205 -14.814322768616602 -10.401629469652992
436 -9.0464806704859 21.11840731090965 -18.42733404519796
401 2.7138172089125283 14.904435275404943 15.992569983964305
407 6.792369010217623 -8.046307956519078 -6.425834999611369
405 12.058109068576035 5.9293427702654675 8.594569676794416
438 17.520392305682858 -2.074734192174151 19.83678972120924
440 -2.9779055661119775 6.672022296726998 11.219746430243221
52 -0.7755442262543409 -19.72685321256851 15.868223877611628
50 -1.3007012048191178 -0.5736805032616091 -5.213831396508792
86 1.936153900606504 -16.531310515418095 8.144619702648782
88 22.701124368427475 17.146549523539292 1.5061037250396445
210 5.728946893218172 -3.627945224849533 9.815922943953426
212 18.161532745593334 -23.72574260586152 5.045055468538528
214 -8.797633801733756 0.2541283551790613 -19.465708398237116
216 -7.587983931525597 -10.121035239190054 -24.886801483719843
305 7.375731002865657 -30.954049906519188 -8.594699140721863
338 -9.393400769155066 -9.054209331765952 8.90677594746902
340 19.93581919609408 3.574294862068023 -3.467365439797328
344 13.553472129783366 23.13871448301818 -4.849033889775477
342 2.6986286356302647 -29.283077241689718 -4.7566194990526505
433 -3.418662357937128 -13.49482262881906 1.2203869363439617
466 2.3847427647716968 16.098579226384544 -6.0340407224326125
468 -14.927641924742884 24.145881048453347 -11.965460905830458
437 -29.516039596523925 6.84831190751757 20.00909165595694
470 -14.928026426345724 -2.5812552273331195 21.288057483915665
472 8.867616072490495 -10.493485483287463 -17.134010505729346
84 1.665386158200964 -4.7724813335767236 -14.157385175535085
82 -4.748418823900246 8.61721447188802 6.792963713307789
81 -5.156859866959365 -2.8939442637608583 -11.04065310733152
118 -7.075763257207338 -11.604123814809935 -20.528223686086466
120 -0.8759968459376821 -1.5767363245321795 -4.688939130450389
242 2.619162408826012 -8.872325622819865 -40.94768843002679
244 7.896177784986664 15.21107137085306 1.5987790247519797
246 8.600034400405631 -12.814307970198572 0.36322010999630083
248 1.3622025840179646 18.86400644904404 3.849200454490379
370 -2.7073758088765763 -16.818677054692387 6.55900380384354
372 0.49369350548736496 5.0206732830641245 -8.73320513844257
374 -8.344148410709009 0.333570512979957 -16.34991881146744
376 9.942012794551578 6.549608136749957 4.863394241860081
465 4.764807986074671 -14.14824500652675 7.720312044838236
498 -33.30351345443473 10.55210672258186 23.36137164382429
500 20.366480543165217 32.38495392094362 -0.20825102346333177
471 9.811287298058115 -40.196591303607164 -10.687776384729247
502 4.824793327718888 9.504315134477869 29.189896271572074
504 -13.40877738926258 3.0319269417535493 8.157729022556518
469 -8.53403515597089 -0.04387297249514267 -4.586350687066772
467 -2.5755496221751515 -14.68079406942849 -17.69603475141104
116 -6.965229518933056 2.588964279014602 8.455240134192707
114 -12.230757351419834 3.0693617981530417 10.441071878509172
443 9.475265699769936 5.813707675739005 23.69966063220925
89 1.1503215146694825 5.831734666711423 -25.38157163686492
61 2.8138157076709613 12.03985568768262 20.60492219872283
95 -5.711860004736876 -2.5932016876522046 -8.097370262667642
59 5.594095444367423 -21.192699680924726 -10.94049401996758
217 5.283113785264447 33.8539464253995 -0.3496296513793795
189 -13.112072101254837 16.84386200950588 1.1648968619168119
223 -18.474526176497122 4.0402405583439895 6.691507567863464
187 5.60324366036624 -1.8795815198579466 4.278884932385381
345 4.825694603854603 -8.000203149972851 5.989185709217514
317 -7.4440436697075585 8.835383517414344 20.590322955261872
351 -18.148289074005316 -13.540086864889943 2.3467605821237543
315 6.336092163523168 12.624697217394456 -16.307409830084232
473 7.448026559168336 -17.130109457806938 -0.49430605836957126
445 -49.42788729049689 10.869455933242277 -13.170603021937625
479 12.134490580369828 -8.212609006471475 -7.652817101778287
475 13.711323651025708 6.313772521896364 13.950738478219975
121 -6.533201927016873 10.720685572446728 5.9350822525401705
93 -3.5545799540240375 -0.1657418260075961 -5.189485840463431
127 -3.371184334112537 -12.917989291981407 -8.328718838427633
91 -24.946351910280846 3.455389007348979 20.11051070559325
249 -1.732781447573999 16.743352943618827 -17.7644937956684
221 -18.133988169533993 26.26505387159075 11.812436565665339
255 12.67493481318336 2.5582144830533213 -1.5343337682499076
219 -29.864761597573633 -17.009940344599304 -2.2773379439501453
377 -7.947575932648124 -4.338923202372611 -20.788297270301555
349 -11.823882455164684 10.659183863503792 -10.134965124667671
383 2.650132014709316 -1.2293375407511566 -9.659462177524679
347 37.3048421028101 3.2472781205679127 -4.610167873772732
505 18.435147998495886 -0.8127512988214036 9.700145084805039
477 8.751228389451093 -14.353784681920628 -14.832435995312563
511 -10.03434931136295 15.555448868661625 -18.75006428252705
507 -13.467161445850973 8.801673512984813 -11.463516057606101
25 12.27646131229295 -20.53289276581225 10.379586301594188
125 29.092781207553962 -11.245332904624075 -13.303034926667594
31 -7.601104053700247 -9.697307049834714 -27.472078105030597
123 -23.323554291079656 2.03529207809019 5.116989985578053
153 17.527022184991115 5.551905086799926 -7.25903390161215
253 -15.636120201573604 -8.252272257956552 -8.480491974344815
159 2.0206175463307483 -14.956194052794524 7.370208644052071
251 4.51789732008115 20.093743618073457 -18.737659672917257
281 -13.866914608429468 -4.799833557597434 23.253366839935328
381 19.0810667142728 -29.02791799065585 -6.606015196139547
287 -0.3689957239776123 3.895979959786766 -12.2033517992901
379 4.048865562746191 15.53145954561233 4.076984429238284
409 -5.95252344640958 1.1550025542864788 6.1314378784497165
509 9.960414364159455 14.368633398848441 12.345489333224215
415 -2.8578305779288047 5.183338906027691 37.509905759660796
57 12.08216140460389 0.67955615434414 10.687616803405437
411 -16.925585730669898 9.414126141137062 -19.752411687396556
63 13.537052461155545 -11.281749111069265 -5.333033344410953
29 10.596423482428273 2.3768926321143637 2.054219783559351
185 -14.893249696024926 7.9598668702303 -3.095307622347959
27 -6.980826176731755 -6.5438518966806445 18.22591841335228
191 9.494808600452478 6.085395098406496 14.491682952927668
157 -3.8144938203334853 2.2482284537295567 15.344876732070365
313 -15.044056410647864 14.749250198512508 25.34465327689235
155 12.009187571829296 5.773378988884019 -8.685523071076686
319 -2.5256331371462006 -22.504076350153444 -18.339335645720098
285 -6.0644738396706455 -0.17691879124282098 -0.1395108738338757
441 22.049824248797428 -9.549926714758223 -3.9037697516075247
283 -4.970865949496648 -11.191494819736109 40.78952711433602
447 -17.531223430776777 -12.885980901491846 -24.207236410198135
413 2.670744776506731 0.4532566991197935 5.5845314225276645
28 9.591015498055963 5.68983988228823 0.17642350503613138
26 -12.135292671569676 16.825224223079505 10.320821252485668
30 -9.800048817716034 -14.941704953188852 -23.522820208058242
32 -2.0019257182283594 -2.131564707803147 -24.879914042555335
156 -18.23026648885646 12.444655169847445 4.477900554576913
154 -7.149401397053264 -14.11364405167957 1.0325268777281684
158 -3.5720079992268863 -0.8756277269718007 -6.268986379425499
160 -2.8689630580346885 -4.693239236086984 -1.8622835276769465
284 4.8577963380825695 4.982269608303093 7.350850909939981
282 7.2383571435828875 9.760464965540503 25.391678639317497
286 -15.110063598938543 15.118180101693918 16.457845625017402
288 17.43508278622107 -10.376139846172768 12.885763383677162
412 -0.5552574366703217 3.5623024313019864 -6.528817621692045
410 3.8300415947715254 1.9219073989186 11.903524496457173
414 -3.0398696165825005 40.68149430908682 -14.222723706321316
416 22.915805357458787 -15.962452567391427 -5.239396483326805
58 -2.5162124135520636 15.538919744324943 -27.396287539183753
60 16.788681084239574 -3.5040452330369027 5.758312776614602
64 6.620779086342324 24.410950898359975 1.847273238674514
62 -8.345798537053058 10.945261341855929 12.003436780887546
186 2.559897425653655 -15.747967350638582 -0.34221607075988447
188 -5.967327209859483 -4.0169842546668635 -0.9704697633236696
192 -18.131357546394533 29.52263892695981 1.289382761555118
190 -11.18852061814263 -6.922925126308189 5.7684029495410005
314 -13.77216486521167 -7.892752292125219 -0.8975253760007663
316 -7.043846986442382 7.680077310152623 3.715924271826957
320 -11.37786756857476 -4.146359569569465 14.315992509155192
318 6.884861694944123 -5.482669053861153 6.736438574669785
442 -1.1747329984241976 -34.15617863118071 -15.235064336715128
444 24.207631438811365 -25.118489941773703 -16.11384117981592
448 7.606038378431932 8.250381611349933 -8.24579743247264
446 5.094106376454344 -2.760346852699804 -18.305775161131518
90 -6.988592611390395 -16.737422439590507 -9.268719926857354
92 -2.938949379267207 8.655116530997567 -10.880706447085759
96 3.462795149773749 18.021363675862318 13.897850350641786
94 -7.26043886807071 -4.750079059786245 -16.128016255028076
218 13.560651819081835 -1.5965810418083912 -15.364487669223871
220 -5.238332699310057 19.646416704347107 -18.97052850191932
224 14.838446315291844 18.166847494247627 -24.67224099960377
222 -16.328298097471343 12.805008768931094 20.110561099064412
346 -4.190989691999649 18.748417169267768 -23.272566265864892
348 -27.1666145767552 -4.683876700223834 8.201360528086585
352 -2.5130523813058057 -8.507605328498945 -6.366873929201652
350 -13.836671909391837 7.871895453470426 25.33680450041354
384 3.155164771596101 16.24908106773709 22.022805083515028
474 -3.172838469979102 -7.630856843721309 -9.761618993827486
476 -0.46249972115502663 -14.527232694333161 -1.4812670250215547
480 -5.271036046610421 -15.26412933037301 5.504993871067599
478 -13.316991137859466 -10.84750889317461 -16.07666193993435
122 16.928028772324744 5.0147556926601204 -7.678629712681128
124 -8.673402780245315 -0.680365721436519 -31.352322223571612
128 -9.158268465537484 -20.370457177618988 -13.84047709495776
126 6.3661297457032795 3.94173893493632 3.305187371424686
250 15.559070053939537 -9.457582992936963 -12.177442882526279
252 14.370730372140484 14.383064635707 -10.597995157066029
256 -14.900724859725313 11.30566004806742 -1.6742717088096817
254 -14.33525019057261 -23.766745266365696 20.97315017317381
378 7.596473159364984 -28.243299579019993 -9.121008615435036
380 0.4281794784944309 -22.733107234678926 10.379499031535405
382 0.7807297120619003 8.895667532662193 -16.754757240616385
506 -4.336969456707955 26.08448309718498 16.373514177753098
508 8.146070488747265 0.994813221503323 -12.765730742080066
512 -0.9297180401056376 8.944945232740443 -4.6287232887254515
510 18.47017697660005 -9.43396575256868 -2.8774140489940057
