LAMMPS data file via write_data, version 22 Jul 2025, timestep = 200001, units = metal

512 atoms
1 atom types

0.09549051925896634 16.9984047583053 xlo xhi
0.05971608254386496 9.809448957456393 ylo yhi
7.361692809929819 23.850599190070668 zlo zhi

Masses

1 12.01099999691024

Atoms # atomic

419 1 1.1964708720676944 0.9288733558420281 8.323262627074207 1 0 0
65 1 1.8231281654994054 2.114984434308758 8.529854291568736 0 0 0
71 1 3.2552044219926035 2.168258755664145 8.325770718197553 0 0 0
37 1 3.9620163208861072 1.032625943357656 8.187326652672935 0 0 0
35 1 5.392275042063433 1.040025128404055 8.518715535971303 0 0 0
193 1 6.065353949520163 2.279269528709229 8.592697546335007 0 0 0
199 1 7.552578768051442 2.24410764274476 8.426440413812635 0 0 0
165 1 8.383109053702402 1.1841987881391116 8.70663815216312 0 0 0
163 1 9.784853409996305 1.1849383956289503 8.543604735532103 0 0 0
321 1 10.41298814310963 2.3182081745848526 8.471839638265982 0 0 0
327 1 11.848095030888484 2.300639234617551 8.396918968943915 0 0 0
293 1 12.572432135892527 1.0353963419737457 8.281682380397276 0 0 0
291 1 13.947226726686775 0.9914515563006384 8.27452693870465 0 0 0
449 1 14.64605299698791 2.246886601259819 8.306468781036806 0 0 0
421 1 16.616975430601244 0.9652000831136897 8.611247082688427 0 0 0
455 1 15.967544370908561 2.1994933958815293 8.126294842819462 0 0 0
451 1 1.1052936090479504 3.342456629437113 8.29998916641069 1 0 0
97 1 1.9131662424172424 4.686534217480747 8.434052075496849 0 0 0
103 1 3.282001607275668 4.666596801697708 8.58424557248422 0 0 0
69 1 3.9796389607827347 3.42075773094037 8.388503228491514 0 0 0
67 1 5.372647504846698 3.403258044835075 8.340577789532885 0 0 0
225 1 6.021906382442068 4.618910247244048 8.354139815773156 0 0 0
231 1 7.448215573490696 4.603813751932004 8.715147220800155 0 0 0
197 1 8.207402506301523 3.4327387943359287 8.248609273249375 0 0 0
195 1 9.598966462295225 3.454420763272819 8.110670860919594 0 0 0
353 1 10.294446759946863 4.636702134492509 8.379175241155615 0 0 0
359 1 11.688402157249694 4.754637112560611 8.326956189170271 0 0 0
325 1 12.376856120652851 3.5755628193068727 8.703217513228326 0 0 0
323 1 13.805791506298261 3.5004205417684022 8.271732655878163 0 0 0
481 1 14.59358903134852 4.619777506433522 8.20067897432075 0 0 0
453 1 16.671569622791445 3.3245570734264893 8.33590349940562 0 0 0
487 1 16.02650793473919 4.5607819842742705 8.139810879913435 0 0 0
483 1 1.2082196117942596 5.889405548288374 8.253391584368739 1 0 0
1 1 1.9152898250396535 7.083598138470253 8.248779005182982 0 -1 0
101 1 3.964382395601429 5.887271659646793 8.594777671944035 0 0 0
7 1 3.220573392053862 7.173323781880865 8.152955325461637 0 -1 0
99 1 5.332218133291064 5.857592699295918 8.478537461593524 0 0 0
129 1 6.171286018566026 7.108760255238209 8.554820377693542 0 -1 0
135 1 7.537134776276252 7.237493141458773 8.549707410708992 0 -1 0
229 1 8.259452954178771 5.971212510966793 8.524380533642654 0 0 0
227 1 9.684854897688634 5.968269407697925 8.44621836974215 0 0 0
257 1 10.403102864216322 7.297642920168042 8.461431148584506 0 -1 0
263 1 11.753144366803046 7.243293353259521 8.434716273879014 0 -1 0
357 1 12.521137492123502 5.941529407295535 8.296601122607754 0 0 0
355 1 13.91681188110513 5.912581151425361 8.270031813823019 0 0 0
385 1 14.655927113867227 7.104164054265115 8.350881294703612 0 -1 0
485 1 16.730242473749936 5.851141959330469 8.483658359779454 0 0 0
391 1 16.04980316684717 7.114062557363477 8.88600405379452 0 -1 0
387 1 1.1848247714815592 8.218213256222574 8.082101259172672 1 -1 0
33 1 1.8208346852764876 9.520469095906892 8.34879361835123 0 -1 0
39 1 3.2751451098806097 9.50252259275878 8.368650941274975 0 -1 0
5 1 3.9599608790221654 8.292288156617351 8.572566902450102 0 -1 0
3 1 5.476428117359673 8.349615975342086 8.41584004262269 0 -1 0
161 1 6.115031021294126 9.64910785617614 8.590708220987326 0 -1 0
167 1 7.584644231041556 9.703505195725093 8.562842255171692 0 -1 0
133 1 8.212003179683299 8.49164781648855 8.696238609820774 0 -1 0
131 1 9.670880213150463 8.541201464650609 8.610436459681912 0 -1 0
289 1 10.43012542647357 9.792894514240976 8.621812009126993 0 -1 0
295 1 11.905716165128975 9.669784862130172 8.554339712877807 0 -1 0
261 1 12.499134410520337 8.361121950864831 8.681411110277429 0 -1 0
259 1 13.870949881224035 8.333487808435025 8.226778261183323 0 -1 0
417 1 14.570667637601755 9.494446446099822 8.494594322296223 0 -1 0
389 1 16.71650304173988 8.277742824635174 8.447858075687858 0 -1 0
423 1 15.984447282288947 9.547054776696536 8.356295939992867 0 -1 0
388 1 0.8653661717491513 1.2874260917020617 10.374784479415727 1 0 0
418 1 0.1869692531348045 2.568433036017131 10.353788739189726 1 0 0
390 1 2.3286127592285486 1.1944549562253741 10.488780933257997 1 0 0
424 1 3.10397963517734 2.453197346282672 10.451791393599269 1 0 0
4 1 5.202790113464291 1.174957804547788 10.691099676536787 0 0 0
34 1 4.4698605055023926 2.4364752878102864 10.264792928776277 0 0 0
6 1 6.57889340966432 1.2179171100743356 10.375888701476514 0 0 0
132 1 9.50220889851719 1.2902149856633967 10.679329078925129 0 0 0
162 1 8.713322718225113 2.5262959811679764 10.336953742324292 0 0 0
134 1 10.831773740970403 1.323217112343457 10.468822446490693 0 0 0
168 1 11.560767542122413 2.4256443547804336 10.552434817055765 0 0 0
290 1 12.927723392644186 2.4264668708967148 10.443366775780728 0 0 0
260 1 13.718452143839936 1.165908916954198 10.389656299905138 0 0 0
262 1 15.119744351353804 1.15175315943798 10.029437129977502 0 0 0
296 1 15.70068714857904 2.51248182028204 10.227084504022665 0 0 0
420 1 0.9366737877296262 3.698067537954607 10.591043688979575 1 0 0
450 1 0.35864002487576724 4.928971078780015 10.32258609163788 1 0 0
422 1 2.401504226334512 3.6278030387220688 10.608339769899162 1 0 0
456 1 3.040544910268414 5.022365372955965 10.694457228387819 1 0 0
36 1 5.202154709189049 3.7177357089325263 10.440992965925478 0 0 0
66 1 4.558134381037885 5.024435478645521 10.391172119329866 0 0 0
40 1 7.287538356237404 2.4946651760016154 10.612669974333901 0 0 0
38 1 6.6197756103181495 3.7355246430230755 10.728047747643085 0 0 0
72 1 7.235081381303465 4.852148139456048 10.051126854110361 0 0 0
164 1 9.369479044885091 3.802010382474644 10.314312384812307 0 0 0
194 1 8.585450953404253 4.923937838670057 10.532483703671506 0 0 0
166 1 10.75489162219207 3.8115669882344534 10.251704885734643 0 0 0
200 1 11.587001426733403 4.958126731335144 10.532621470532126 0 0 0
292 1 13.660542045478381 3.66974895009653 10.523279776205342 0 0 0
322 1 12.905843898869897 4.891882601205792 10.428399116947155 0 0 0
294 1 14.943149203079008 3.59826475156554 10.306427394873175 0 0 0
328 1 15.705138423045984 4.976741150018189 10.360948410560852 0 0 0
452 1 0.954680435431607 6.227980063593255 10.402737113250787 1 0 0
482 1 0.2172818005086196 7.393237496302493 10.713421574208809 1 0 0
454 1 2.378941677715514 6.190226983978284 10.427755220422828 1 0 0
488 1 2.9824057620240594 7.287476872953655 10.26886181039814 1 0 0
68 1 5.2208165830333915 6.292547340064608 10.655979083981656 0 0 0
98 1 4.5195301381803485 7.420537648372898 10.43219924297215 0 0 0
70 1 6.6956249000623265 6.1640134210391455 10.330929157443826 0 0 0
104 1 7.389319411006593 7.377574643659108 10.696325685567043 0 0 0
196 1 9.37300765669929 6.122321230375596 10.501798176571087 0 0 0
226 1 8.859465602928482 7.316466787147131 10.418632286622914 0 0 0
198 1 10.951951029759716 6.193381317127261 10.300880761921965 0 0 0
232 1 11.591063066790547 7.414445577049784 10.530467477425173 0 0 0
354 1 13.052126189303705 7.260947643495627 10.41706662976999 0 0 0
324 1 13.681313066882563 6.026076799751984 10.556390211550763 0 0 0
326 1 14.951699593154487 6.073285711521247 10.850943233718183 0 0 0
360 1 15.65786668504611 7.282028573394014 10.26991715581115 0 0 0
386 1 0.21284372062463755 0.09218280332256157 10.660720887179512 1 0 0
484 1 0.8220232387422846 8.583586609251814 10.315415816532893 1 0 0
392 1 3.007719208784105 9.674224811931538 10.606711786730846 1 -1 0
486 1 2.1732119471658997 8.525696083616518 10.174217483784005 1 0 0
2 1 4.49639938519241 9.62902727840323 10.499345865333604 0 -1 0
100 1 5.257568208272057 8.505066996877147 10.548340131418552 0 0 0
102 1 6.704812332623725 8.557143319150745 10.727434783778191 0 0 0
8 1 7.445776424620605 9.790290983138542 10.63362847608982 0 -1 0
130 1 8.916681429163658 9.779242072730487 10.60609399133465 0 -1 0
228 1 9.625535739436375 8.548962201787226 10.690357190703516 0 0 0
230 1 10.942726740621623 8.650044063805858 10.38328965579581 0 0 0
136 1 11.58845404796481 0.06186529510715921 10.636621579110964 0 0 0
258 1 13.01946444377359 9.681659119749293 10.678278969215159 0 -1 0
356 1 13.691109824971297 8.570090936997557 10.380589865147906 0 0 0
358 1 15.109373946897094 8.568681050886571 10.910251780150391 0 0 0
264 1 15.806690433395275 9.800569149428117 10.4395059030301 0 -1 0
43 1 1.687519086424659 2.508874321970693 12.531101349938009 0 0 0
11 1 1.5729469642451173 9.748416749830826 12.383944959609575 0 -1 0
13 1 0.16577931445794342 9.770854728296966 12.299010372653859 0 -1 0
169 1 2.279138504289736 1.258389014945789 12.570116002076762 0 0 0
175 1 3.69661060604346 1.2308102830877865 12.397518206990224 0 0 0
141 1 4.333039301373122 9.762815207447597 12.622621186546484 0 -1 0
171 1 5.844115324983071 2.487523511873939 12.277791755538873 0 0 0
297 1 6.641349194134994 1.2455517825240823 12.501409223722533 0 0 0
303 1 7.982114394981736 1.1854776379256007 12.658494598994084 0 0 0
267 1 10.047027685700572 9.737200448774557 12.570620218574245 0 -1 0
269 1 8.580988096984797 9.743010797704263 12.824811237338059 0 -1 0
425 1 10.741595388553781 1.06914190461883 12.563674346152986 0 0 0
431 1 12.181204956104734 1.2045825603136122 12.293653500584902 0 0 0
397 1 12.750573442791502 0.09522560162140081 12.78214663283529 0 0 0
395 1 14.276827112518074 0.09308884701166661 12.658744057099783 0 0 0
41 1 15.034552979287762 1.3355243442606766 12.655077283411828 -1 0 0
47 1 16.4368201398311 1.3811418853141781 12.503782406917844 -1 0 0
45 1 0.24020839802561156 2.48889783637334 12.607390866787345 0 0 0
201 1 2.3148026932530437 3.662771628970746 12.848925349866779 0 0 0
207 1 3.7333346218883228 3.6578852280225327 12.49313736496157 0 0 0
173 1 4.373083526511825 2.498303005039909 12.41947289685437 0 0 0
203 1 5.845941244585997 4.914869889825773 12.733983519240418 0 0 0
329 1 6.525434652330461 3.8354747066078305 12.177744546218163 0 0 0
335 1 7.986389202531813 3.776709272831791 12.710170229243719 0 0 0
299 1 10.023636897163676 2.3237151087422308 12.427829804726326 0 0 0
301 1 8.598443241884038 2.3750206688666187 12.466273859898465 0 0 0
457 1 10.789051752069012 3.518090882837619 12.292813364066923 0 0 0
463 1 12.32460071240149 3.752602848970084 12.1961317550089 0 0 0
429 1 12.93700005404214 2.539509432545299 12.534733257876379 0 0 0
427 1 14.319131165709868 2.466944322817196 12.296127555835632 0 0 0
73 1 14.945215516781232 3.712298737281989 12.461580231250732 -1 0 0
79 1 16.304586226171466 3.738694970017686 12.30997627669162 -1 0 0
77 1 16.949812742434947 5.051649148655521 12.413024493062622 -1 0 0
75 1 1.6310053635801365 4.829663131673848 12.529628283656109 0 0 0
109 1 0.18194323079973174 7.368744469452677 12.300639895294221 0 0 0
233 1 2.414933156783419 6.184508222702454 12.749266889083492 0 0 0
239 1 3.6361844523583025 6.163807603478481 12.506323886249554 0 0 0
205 1 4.404286324902912 4.8611548411711585 12.489451936144416 0 0 0
361 1 6.40940339322795 6.23442547806037 12.490200257012331 0 0 0
367 1 7.840347144187991 6.084863460613461 12.474853411110391 0 0 0
333 1 8.621606570984989 4.7929056873481 12.08495031469199 0 0 0
331 1 10.07487354075421 4.843780310950775 12.418520790557992 0 0 0
489 1 10.708275510607342 6.096784846434086 12.456366806129616 0 0 0
495 1 12.279494685954912 6.075422421922787 12.400124360880904 0 0 0
459 1 14.21308650158972 4.927917517606242 12.51886696416808 0 0 0
461 1 12.959302687570736 4.939961831017769 12.509448534342905 0 0 0
105 1 15.072361279819669 6.214094404301673 12.256429262021868 -1 0 0
111 1 16.436582033745243 6.153132091867764 12.732576021817373 -1 0 0
107 1 1.6367069151774618 7.347846487801051 12.451448056291097 0 0 0
137 1 2.204475079002373 8.484272580575544 12.54650065963525 0 -1 0
143 1 3.6538702385227073 8.569538169606345 12.44129111231613 0 -1 0
237 1 4.343908630475946 7.328156351447285 12.65786729838296 0 0 0
235 1 5.742447943342702 7.389614734688492 12.550808048523482 0 0 0
139 1 5.674207005876323 9.644058508147491 12.33368100069767 0 -1 0
265 1 6.5007114802847195 8.54438938961932 12.778577733455805 0 -1 0
271 1 7.8360654661210285 8.568452247495145 12.678291457873362 0 -1 0
363 1 9.97174187659769 7.249128462322955 12.333269223343361 0 0 0
365 1 8.522974454776474 7.174598616145851 12.502842620786103 0 0 0
393 1 10.679789777403169 8.49430741631879 12.493766641972794 0 -1 0
399 1 12.123113691605445 8.626848307788098 12.345866394415937 0 -1 0
493 1 12.953749555121638 7.334561796182346 12.545137992524179 0 0 0
491 1 14.30233388224917 7.535466436437687 12.849866188238824 0 0 0
9 1 15.138977081193561 8.721473711374054 12.244359801673129 -1 -1 0
15 1 16.478672980244358 8.660542235298559 12.72891144423056 -1 -1 0
14 1 0.6434240362404351 1.4067242580165045 14.430432027656824 0 0 0
16 1 1.5376093094461216 0.22428598165943991 14.740104462108318 0 0 0
140 1 3.595143723992898 1.4980782402533377 14.515877695889827 0 0 0
138 1 2.9637011747562534 0.3483160080240979 14.487290302041433 0 0 0
142 1 5.075811209372524 1.5831668723299683 14.672221859985655 0 0 0
144 1 5.845314661473152 0.319789645423911 14.630450949861505 0 0 0
268 1 7.968119504893592 1.5475535196679662 14.815967847779325 0 0 0
266 1 7.272120852553358 0.41427601786110024 14.484865620256322 0 0 0
270 1 9.357455609997489 1.6058471392133211 14.452768635888544 0 0 0
272 1 10.172706560088184 0.2923652189011693 14.619113294615836 0 0 0
396 1 12.130780747022035 1.5880032597327796 14.53168354466335 0 0 0
394 1 11.52213022809108 0.22247532860697075 14.590966914953142 0 0 0
398 1 13.5664478311162 1.520159061588395 14.620863064436705 0 0 0
400 1 14.254362843923694 0.24398592722663584 14.824957812504689 0 0 0
12 1 16.235087520468287 1.519609587851034 14.611824368693426 -1 0 0
10 1 15.64836935729832 0.2615357179598432 14.546547950306833 -1 0 0
48 1 1.4589757611035912 2.7397178105622046 14.678538044180382 0 0 0
46 1 0.7725303613014864 3.986625369474162 14.496329607759183 0 0 0
170 1 2.9297602177937154 2.6064368355533962 14.717966455134059 0 0 0
172 1 3.6307690557163577 3.8848688590684195 14.607093434563803 0 0 0
176 1 5.859646694911355 2.6849407617492806 14.704889171328043 0 0 0
174 1 5.123288313887597 3.887303798935445 14.62650329237 0 0 0
298 1 7.259841383421008 2.770734799617289 14.867605782750466 0 0 0
300 1 7.924411125712151 3.8259326948453305 14.178882772303051 0 0 0
304 1 10.100016320342753 2.7618415895900768 14.626050054333373 0 0 0
302 1 9.30701997311226 3.9696860973580406 14.52837363942157 0 0 0
426 1 11.467130264049683 2.7350355390456222 14.197136727920311 0 0 0
428 1 12.098643089475067 3.9051107150786732 14.386147549418444 0 0 0
432 1 14.30359709051916 2.659253313742906 14.752092228355702 0 0 0
430 1 13.47375394541907 3.879254696769935 14.601086898345416 0 0 0
42 1 15.69013981614479 2.7739243295189677 14.490988479791367 -1 0 0
44 1 16.360684707658073 4.01251588547209 14.509274513406664 -1 0 0
80 1 1.6131953410841229 5.162771654370776 14.62521992609716 0 0 0
78 1 0.8627448710520298 6.453981770597699 14.53902563296544 0 0 0
202 1 2.9782918120525324 5.098237253754848 14.459512829342685 0 0 0
204 1 3.6493442517522556 6.37212809554936 14.555967597410522 0 0 0
208 1 5.805833900278397 5.329244577901435 14.749407763653522 0 0 0
206 1 5.139046780953193 6.470466381672223 14.582141266437258 0 0 0
330 1 7.311721831191651 5.2293810957519336 14.303394828395477 0 0 0
332 1 8.008936153512504 6.445273789910018 14.560761888028363 0 0 0
336 1 9.988818629927236 5.267758419040884 14.486269147965782 0 0 0
334 1 9.373031968905202 6.382106210579944 14.208304266517477 0 0 0
458 1 11.403822540141638 5.183782874417536 14.226852898139171 0 0 0
460 1 12.148316295136425 6.377019938171575 14.512353331784695 0 0 0
464 1 14.298638588192821 5.060905173209952 14.77367806014258 0 0 0
462 1 13.604161733068558 6.256845554505908 14.455294372023333 0 0 0
74 1 15.6795463376031 5.085283072324439 14.766185729056717 -1 0 0
76 1 16.309495062595452 6.373859961511876 14.289704001478917 -1 0 0
112 1 1.6252886873153864 7.655401081692675 14.611380744594705 0 0 0
110 1 0.882276676104278 8.794688584388162 14.620159306543698 0 0 0
234 1 2.9350245732381772 7.715026275068151 14.57952475081235 0 0 0
236 1 3.761567031730955 8.978338378646406 14.653329075832438 0 0 0
240 1 5.86311327206009 7.684438331624068 14.769239465846349 0 0 0
238 1 5.137196932160317 8.955363841839295 14.766291049546416 0 0 0
362 1 7.2749916385683076 7.674100328571759 14.598745490526415 0 0 0
364 1 8.11360981786523 8.93964402878196 14.793815267703572 0 0 0
368 1 10.222259255013855 7.49696087153036 14.504392186153385 0 0 0
366 1 9.524944478303137 8.870002081084708 14.534675214986589 0 0 0
490 1 11.57997357797337 7.527906828125283 14.426097786943005 0 0 0
492 1 12.232971401364471 8.7581972794918 14.644875543841195 0 0 0
496 1 14.267550792379248 7.63198545716708 14.29837059347128 0 0 0
494 1 13.50343303310598 8.719582775291999 14.67406221645734 0 0 0
106 1 15.538188859656922 7.6427508100331165 14.760470998192478 -1 0 0
108 1 16.329350811315436 8.810260090384919 14.302697188567388 -1 0 0
21 1 0.962633076412426 1.748462978007109 16.54768083614742 0 0 0
23 1 0.27870353630170897 0.5234626314233382 16.59291072421364 0 0 0
19 1 2.351691262834925 1.8027023180730364 16.662333453161324 0 0 0
145 1 3.0986462912155375 0.5404804754360519 16.606900724606817 0 0 0
151 1 4.56761648865928 0.47731653009098474 16.734804390796388 0 0 0
149 1 5.155996083749033 1.81612620145213 16.738463009570182 0 0 0
147 1 6.704565556611732 1.8134966878731429 16.795849700080062 0 0 0
273 1 7.2494846028038475 0.5582698572491788 16.593372734686028 0 0 0
279 1 8.5705367908926 0.6186923106135893 16.81150280509246 0 0 0
277 1 9.380530244280758 1.7603916695508677 16.612784459291632 0 0 0
275 1 10.871233272112335 1.7886290205596704 16.566684407952756 0 0 0
401 1 11.590997696982528 0.481269115783954 16.761358838544187 0 0 0
407 1 12.951503148139055 0.4902556928795801 16.82126414202469 0 0 0
405 1 13.754074903264742 1.7174270095712638 16.7722573395805 0 0 0
403 1 15.099986375591412 1.6379470901726696 16.546188990562847 0 0 0
17 1 15.81149953235082 0.46508260813695007 16.750515850443826 -1 0 0
53 1 1.0290238854971459 4.205812008183265 16.564168851909255 0 0 0
55 1 0.3087665159363375 2.928129760573375 16.49286066522528 0 0 0
51 1 2.3299201223423736 4.212009036042044 16.603254046628905 0 0 0
177 1 3.0792487129486266 3.0379950321135185 16.76874644244095 0 0 0
183 1 4.447208914608249 2.9700235015622836 16.780870269477774 0 0 0
181 1 5.187727049342296 4.126092181766916 16.778256889221367 0 0 0
179 1 6.666596944186393 4.060274223238026 16.44292470807237 0 0 0
305 1 7.3170832508691985 3.0270676659334628 17.018149468087508 0 0 0
311 1 8.716335001124339 2.9662738226886534 16.640295206594843 0 0 0
309 1 9.380276332877425 4.103102982599158 16.69509096798513 0 0 0
307 1 10.787515095619444 4.089643708153104 16.477993747384613 0 0 0
433 1 11.499683896298428 3.0155032448801022 16.500485145349316 0 0 0
439 1 13.002439639833625 3.000766568373752 16.448660517660826 0 0 0
437 1 13.683212135103954 4.118565834495081 16.637670819854627 0 0 0
435 1 15.117907562113915 4.076626767748539 16.679240078543828 0 0 0
49 1 15.914043655644955 2.7804454713018507 16.910593794324797 -1 0 0
85 1 0.9975905512407784 6.6716630001282295 16.631082431417575 0 0 0
83 1 2.335118813365839 6.653012526345732 16.574155512349137 0 0 0
209 1 3.0678309312271175 5.430889519040022 16.544405781080915 0 0 0
215 1 4.508092807002135 5.3750220538611835 16.666746408473795 0 0 0
213 1 5.2488563932543215 6.612999083247414 16.71013150572753 0 0 0
211 1 6.674674352142863 6.492763057993976 16.438455968727794 0 0 0
337 1 7.308108736351254 5.292269961223521 16.4374945572052 0 0 0
343 1 8.762258383026325 5.340212937544547 16.261481522460567 0 0 0
341 1 9.309299315062129 6.562137439130306 16.42020490336222 0 0 0
339 1 10.701606147457602 6.665693916300072 16.33646916645744 0 0 0
465 1 11.499190991108671 5.352784437070002 16.671465849337984 0 0 0
471 1 12.951559343902673 5.4386263728932285 16.517325091387974 0 0 0
469 1 13.598904425917254 6.607222688210369 16.766364070516627 0 0 0
467 1 14.924373618217464 6.651850541696877 16.640235999931157 0 0 0
87 1 0.360371488965626 5.396600483799985 16.806971398618128 0 0 0
81 1 15.742805153640967 5.384727861548679 16.88847503936445 -1 0 0
117 1 0.9570570836330021 9.080517582804886 16.72938833706884 0 0 0
119 1 0.20233698755543728 7.86289819215997 16.624545524548743 0 0 0
115 1 2.4562119135336764 9.085672542094741 16.62097494112495 0 0 0
241 1 3.110516975557306 7.886496020412403 16.68157793903419 0 0 0
247 1 4.559841259474178 7.809651935259689 16.580882912227835 0 0 0
245 1 5.2632629767327295 8.981547994254933 16.861935346033 0 0 0
243 1 6.6113528042198535 9.079325636294575 16.552821470470136 0 0 0
369 1 7.311650672560907 7.73255321829595 16.708856427807405 0 0 0
375 1 8.614639307768273 7.737793427373056 16.566699800668324 0 0 0
373 1 9.288840905695345 9.03240995832771 16.63944083843713 0 0 0
371 1 10.760198713416715 9.046810103250328 16.646680976344083 0 0 0
497 1 11.427640054970903 7.866973291381754 16.622225948532172 0 0 0
503 1 12.891402062789561 7.923357686573543 16.681532913005206 0 0 0
501 1 13.569137883993127 9.007734529627708 16.816930370388725 0 0 0
499 1 15.081878566987209 8.925858077331668 16.92374368562026 0 0 0
113 1 15.672895867674336 7.754823428131307 16.305719530587528 -1 0 0
86 1 1.756200371231955 0.08631529521716763 18.664672496906334 0 1 0
120 1 2.409033121541359 1.3214978355267588 18.741933525241105 0 1 0
84 1 0.2280122613779735 0.15670513248170026 18.658638900883048 0 1 0
242 1 3.8775897928044833 1.4628574464711828 18.81712774488274 0 1 0
212 1 4.512739081571304 0.18764309492765435 18.83337505926935 0 1 0
214 1 6.066188402019628 0.23591227478181598 18.76161391065191 0 1 0
248 1 6.745616520229874 1.4149586441415334 18.955708668108674 0 1 0
370 1 8.144201022343331 1.4241835636028843 18.698573394354753 0 1 0
340 1 8.918905077914285 0.37667891851478746 18.888093210803625 0 1 0
342 1 10.194261845538431 0.36581057832873765 18.671266417698583 0 1 0
376 1 10.890969163597328 1.4931954710951496 18.630290020662805 0 1 0
498 1 12.313382873094113 1.5127984965517278 18.677907680869346 0 1 0
468 1 13.077237599289868 0.19452403825476797 18.911026713379265 0 1 0
470 1 14.387472908759488 0.19422075429219043 18.6700357444321 0 1 0
504 1 15.077190959471885 1.4470488357093527 18.719873026731932 0 1 0
114 1 16.409346212533098 1.424502101552441 18.63861441184119 -1 1 0
118 1 1.8457585461887245 2.5622004744368803 18.659130933088875 0 1 0
24 1 2.438857129467357 3.794902014372675 18.659629069721937 0 0 0
146 1 3.8157701890473326 3.844855154422592 18.56674272306529 0 0 0
244 1 4.621581404992789 2.706710967987168 18.84610643118016 0 1 0
246 1 6.069114265185325 2.6784146014118173 18.7090769609172 0 1 0
152 1 6.597524299855992 3.956388627260558 18.745297663716496 0 0 0
274 1 8.060612635161997 3.9228618930710595 18.70780451872518 0 0 0
372 1 8.828410001502558 2.6078034562079475 18.79002532588568 0 1 0
374 1 10.149655551357762 2.6680329256602047 18.715485217380536 0 1 0
280 1 10.85786454022554 3.9504642138725887 18.69284163361271 0 0 0
402 1 12.334379785195122 3.835782841836055 18.4656229276861 0 0 0
500 1 13.02433528405966 2.720346743102595 18.53118210310779 0 1 0
502 1 14.374534385451689 2.6943610375695304 18.668155863158333 0 1 0
408 1 15.144720900042193 3.8061197643397358 18.756832086442834 0 0 0
116 1 0.3948841813425852 2.6865165989299995 18.756029735096327 0 1 0
18 1 16.569742958067327 3.8478542814715606 18.727816158566263 -1 0 0
22 1 1.736524056046256 5.116304702299639 18.449391074899957 0 0 0
56 1 2.385708587668794 6.274092834828493 18.611665873151512 0 0 0
20 1 0.4301103931082625 5.253495541342127 18.86875783041149 0 0 0
178 1 3.808315710723503 6.292653411949275 18.519308640197877 0 0 0
148 1 4.517196561899799 5.163189102520735 18.715827910764496 0 0 0
150 1 5.926258128765165 5.1359897435341395 18.617476229196832 0 0 0
184 1 6.671821644600173 6.423068913941903 18.66773288197249 0 0 0
306 1 8.100152881591185 6.375648167743838 18.824781344115898 0 0 0
276 1 8.808482829570034 5.175635855417192 18.78201212032978 0 0 0
278 1 10.225475830832094 5.105710875864161 18.363441724774766 0 0 0
312 1 10.945648614389484 6.360989249595681 18.4816514232885 0 0 0
434 1 12.319638656372078 6.246319863945855 18.436647901813657 0 0 0
404 1 13.063961092963854 5.046772469636089 18.637096360680786 0 0 0
406 1 14.440431463825172 5.02793949076147 18.66833257161094 0 0 0
440 1 15.130847770210144 6.295918345999881 18.732353838711674 0 0 0
50 1 16.598254142789866 6.470122720445724 18.73565136099002 -1 0 0
54 1 1.6779409263470533 7.499504691879811 18.61614549863413 0 0 0
88 1 2.4070036249777553 8.678754354447886 18.692155389882853 0 0 0
52 1 0.30262722098878025 7.5720579671877175 18.781221772385727 0 0 0
210 1 3.8815224340935726 8.74898776107462 18.623784882133947 0 0 0
180 1 4.611964291105799 7.465983608052069 18.752058783972732 0 0 0
182 1 5.989640849027403 7.635642886728412 18.705350279816983 0 0 0
216 1 6.6969550492263314 8.879800750390872 18.726650201865937 0 0 0
338 1 8.173912048843217 8.77988558433887 18.864400459277796 0 0 0
308 1 8.784087955638569 7.623267625956031 18.718229108842024 0 0 0
310 1 10.1641330547853 7.589506691438327 18.51060440249097 0 0 0
344 1 10.910969951539045 8.794812043877002 18.70937254840107 0 0 0
466 1 12.348984024005139 8.76655668570197 18.823061328450187 0 0 0
436 1 12.986950509268711 7.469256144668032 18.739668616998255 0 0 0
438 1 14.405968188636756 7.5423481577134135 18.632112228046154 0 0 0
472 1 15.02005360827583 8.667879714670478 18.331091120369344 0 0 0
82 1 16.42895570833129 8.731373980174673 18.67847194696033 -1 0 0
63 1 0.6285102550349744 1.3321148885252312 20.666709946258415 0 0 0
29 1 1.2842096392613842 0.22294781978824532 20.748125922764068 0 0 0
185 1 3.3699707916735733 1.4847248065902154 20.857111015625318 0 0 0
27 1 2.683068256684934 0.2933509999885261 20.5566990405933 0 0 0
191 1 4.801515465653496 1.4908175913276482 20.694362337701058 0 0 0
157 1 5.469989749423192 0.2673393859325953 20.745507089915222 0 0 0
313 1 7.655360357884951 1.6296721965738026 20.93269843512165 0 0 0
155 1 6.916551784579165 0.19945720909112047 20.9106285083738 0 0 0
319 1 9.161371835118148 1.5106639322660997 20.832375854284784 0 0 0
285 1 9.800542959348448 0.31306466524164106 20.914426680833778 0 0 0
441 1 11.86277851199312 1.3901044371488813 20.701074775689527 0 0 0
283 1 11.241834068336772 0.12597811730164157 20.917738067844162 0 0 0
447 1 13.29928769353841 1.4248068417380573 20.69911680409766 0 0 0
413 1 14.02178080960014 0.15772781977835088 20.905287733544107 0 0 0
57 1 16.149566295562526 1.5160033322135735 20.70774302726805 -1 0 0
411 1 15.388826483564095 0.248857006290921 20.568507895061916 0 0 0
61 1 1.3008882760240001 2.5280403541058303 20.746570613776775 0 0 0
95 1 0.711561064253289 3.922448910507544 20.681715859542305 0 0 0
59 1 2.637116078808208 2.606245778148326 20.836124017336466 0 0 0
217 1 3.427737691091823 4.02671723520613 20.68305448085154 0 0 0
189 1 5.422262190664578 2.693147223966121 20.937980276428085 0 0 0
223 1 4.7393938065634105 3.822237620629223 20.839015285741098 0 0 0
187 1 6.968916283441755 2.7447839279275943 20.599713191851293 0 0 0
345 1 7.689926902050354 4.045905215983648 20.770734791069096 0 0 0
317 1 9.906861027428022 2.7557682104694856 20.814814121709148 0 0 0
351 1 9.072016465924515 3.8500318491834227 20.626866188098212 0 0 0
315 1 11.27523531952471 2.678591371546472 20.6467642398663 0 0 0
473 1 11.979431011781497 3.880859366512735 20.651408785782316 0 0 0
445 1 14.025608331019829 2.7637441939006537 20.751530191058638 0 0 0
479 1 13.379351096948344 3.891840365606741 20.615374520548542 0 0 0
443 1 15.444903685036493 2.784475423175133 20.567139852185218 0 0 0
89 1 16.106075066482386 3.958881924025035 20.803389958571017 -1 0 0
93 1 1.5140480213918386 5.101608645926259 20.65280242579304 0 0 0
127 1 0.7627593027657276 6.3174421745507985 20.6672827932599 0 0 0
91 1 2.7645506857700743 5.110503167614889 20.45161856826451 0 0 0
249 1 3.558940549510731 6.20691480733194 20.620413237993468 0 0 0
255 1 4.848180135320457 6.114875764174163 20.845096005143617 0 0 0
221 1 5.735178075796042 5.003487644281225 20.85708017558161 0 0 0
219 1 7.0652703461712605 5.1395931183563235 20.466190297508803 0 0 0
377 1 7.650973688999724 6.417515409339638 20.940740377948096 0 0 0
349 1 9.847800316616564 5.092815595159611 20.65091086113228 0 0 0
383 1 9.126647954628368 6.340887948060835 20.810511966369333 0 0 0
347 1 11.122423834383616 5.089669521648777 20.591672661359738 0 0 0
505 1 11.77089579503088 6.337175908310094 20.806960901485343 0 0 0
511 1 13.180639589088829 6.3375238097454165 20.71106656960263 0 0 0
477 1 13.935532380722677 5.114092010241059 20.72833605106686 0 0 0
475 1 15.408743771640571 5.092007123950144 20.636736759211033 0 0 0
121 1 16.232125349813714 6.2685918515766454 20.852552591384665 -1 0 0
125 1 1.3660252139466944 7.585205570749418 20.727551169119625 0 0 0
31 1 0.6376975266168576 8.729965833246968 20.543845998074755 0 -1 0
123 1 2.8159180638556878 7.418109917122453 20.532333653338572 0 0 0
153 1 3.3956231904351664 8.703120959592315 20.75456577999045 0 -1 0
253 1 5.467422461677012 7.431502994422878 20.8035569014579 0 0 0
159 1 4.748596097888965 8.728327963342085 20.831635838362896 0 -1 0
251 1 6.960352167938621 7.55595533735234 20.87685796504868 0 0 0
281 1 7.6577140971098 8.793573035513104 21.01578827091238 0 -1 0
381 1 9.720578773914164 7.557490035389827 21.042110704154403 0 0 0
287 1 8.946488868997855 8.761618666554245 20.851538596512697 0 -1 0
379 1 11.082707629837877 7.507784246010495 20.751189102309873 0 0 0
409 1 11.885982702429523 8.637470898670514 20.970802480709594 0 -1 0
509 1 13.943130802254515 7.525872847841301 20.663770093164345 0 0 0
415 1 13.294314961723146 8.757100047737195 20.680024737745306 0 -1 0
507 1 15.398107077126733 7.462071301222833 20.80294387658362 0 0 0
25 1 16.116997609844045 8.750222928035143 20.736453901664692 -1 -1 0
28 1 0.4859556427934856 1.756978761228004 22.71726732869965 0 0 0
30 1 1.9366490163846934 1.8037994315336388 22.815886016736798 0 0 0
32 1 2.7251867851910485 0.4958444121210101 22.638307983578336 0 0 0
154 1 4.09044707415463 0.5312086659539894 22.602510393368156 0 0 0
156 1 4.687657879835681 1.6770925586419645 22.80734536367836 0 0 0
158 1 6.108648803764343 1.8233761074278414 23.062595794055618 0 0 0
160 1 6.863671647217457 0.5189451272284333 23.04826992205752 0 0 0
282 1 8.334231160137003 0.5156438898234688 22.749099138246315 0 0 0
284 1 8.923060632581585 1.8798445061972329 22.84989043536612 0 0 0
286 1 10.272948779182824 1.9462397982841497 22.774232864167935 0 0 0
288 1 11.059044150283093 0.7196023608524896 23.04462967526984 0 0 0
410 1 12.47525496417861 0.516707482042954 22.7695385171513 0 0 0
412 1 13.206229244463481 1.8105104957550857 22.91957315261783 0 0 0
414 1 14.585327260300572 1.7924330835192368 22.639247118459135 0 0 0
26 1 16.771537440600856 0.5725974046828144 22.709596012808895 -1 0 0
416 1 15.3331515122931 0.5228746571956746 22.720449291762847 0 0 0
60 1 0.46058150551250443 4.202867393574907 22.934443560373623 0 0 0
62 1 1.8976821736116054 4.263199522716426 22.875460635177113 0 0 0
64 1 2.566881599527071 2.9974281633821773 22.939683219243616 0 0 0
186 1 4.040149650934966 2.937125811084416 22.787908048567935 0 0 0
188 1 4.8666701322581725 4.16583728526602 22.98187204993749 0 0 0
190 1 6.296257376262347 4.2225079190908845 22.7460128602401 0 0 0
192 1 6.802941208905269 3.004601265612592 22.809361485440284 0 0 0
314 1 8.228475554618957 2.997313415623286 22.622099366166935 0 0 0
316 1 8.910065183291763 4.227749905356077 22.75282391658524 0 0 0
318 1 10.297562442262736 4.287348809963073 22.81637439255718 0 0 0
320 1 11.056222483957859 3.0844331373762417 22.75133594410149 0 0 0
442 1 12.466736341955647 2.944417158069668 22.878020210125023 0 0 0
444 1 13.126202229020596 4.0920383165507355 22.725203204124362 0 0 0
446 1 14.584780064139949 4.026077136094095 22.512822434988294 0 0 0
58 1 16.71822236303461 2.947302086310195 22.67373444020196 -1 0 0
448 1 15.23198534368157 2.942598176959706 22.688945404369015 0 0 0
92 1 0.584952117295011 6.628135976284879 22.84343793074427 0 0 0
94 1 1.992719997036988 6.56496219437261 22.606267651980325 0 0 0
96 1 2.685346718170728 5.353642228960687 22.56127516876661 0 0 0
218 1 4.067934347124082 5.415095534481339 22.819931384110305 0 0 0
220 1 4.759204386739556 6.561188682057839 22.908486300154074 0 0 0
222 1 6.154491468233322 6.591952647765658 22.98015389933122 0 0 0
224 1 6.919872418075644 5.405127428214945 22.97445386851289 0 0 0
346 1 8.237771503206364 5.478091134897172 22.852889924673512 0 0 0
348 1 8.989163241558515 6.672484659764908 22.99017394971929 0 0 0
350 1 10.359363125750475 6.611590661839556 22.932554024387713 0 0 0
352 1 10.96902569555107 5.424098308940185 22.67824659285877 0 0 0
474 1 12.374010722089617 5.40819836618829 22.726910209849475 0 0 0
476 1 13.127314405608548 6.566204131056654 22.849046653188537 0 0 0
478 1 14.705734788234512 6.571211286876012 22.571793413196996 0 0 0
90 1 16.69672303495762 5.507638861063568 22.772119759139816 -1 0 0
480 1 15.390425523151661 5.3369660756166315 22.770206999630744 0 0 0
124 1 0.610454388248626 9.126924538531354 22.607175456401926 0 0 0
126 1 1.940027605531733 9.028081306901962 22.442790619750706 0 0 0
128 1 2.655617912796226 7.794704288599531 22.59338983578934 0 0 0
250 1 4.028658828850865 7.806991004156955 22.644094227994128 0 0 0
252 1 4.761910849300535 9.178355092914085 22.89348922604389 0 0 0
254 1 6.140049987817069 9.045182339590925 22.959654782164996 0 0 0
256 1 6.822726697666422 7.835435001301067 23.098707305661875 0 0 0
378 1 8.384728241996205 7.925947089607713 22.948424638323864 0 0 0
380 1 9.007672287370912 9.151957505253323 23.146846892950702 0 0 0
382 1 10.389265076604373 9.168998977442504 23.126668141064016 0 0 0
384 1 11.092163406058383 7.840867911383045 22.93990067595537 0 0 0
506 1 12.400535819964801 7.835796399706763 22.831567609128165 0 0 0
508 1 13.12995719758284 9.021070448979799 22.85325713304959 0 0 0
510 1 14.598149092981824 8.983231455699814 22.848132819893678 0 0 0
122 1 16.854882835375836 7.753673714831672 22.68294969008734 -1 0 0
512 1 15.330024529244312 7.771151837534794 22.919715637564025 0 0 0

Velocities

419 -33.76257222840083 -11.277553629004498 2.9085576582898542
65 10.928532438655973 26.644771328116885 -6.780827080600735
71 18.372039377262848 9.271651566187714 19.222159368053077
37 1.0308334029106034 -8.038681582312574 -11.045604725194638
35 11.896629236115839 -1.5395006500524118 7.688046906815585
193 -16.141316802963708 -15.264784002343081 -10.581579115242649
199 -3.498815274989219 4.612560779632756 -11.829566183615624
165 19.26758171340041 12.561743083615603 6.002409075870038
163 12.857721535952185 27.274455803707156 -12.965598209384455
321 16.894624588997193 -3.347807072887997 -3.249303175341763
327 -28.5653232318091 -7.461482416146579 16.273669663601005
293 12.226492940465828 7.537060015055456 15.640848806964154
291 1.9749171363253897 36.98258543332279 -6.890123684640982
449 22.829764312961554 0.3093719170634122 0.9638633027564888
421 0.7503139365921663 -34.04242814955206 -7.313493778853747
455 23.271385095753857 -27.57510770959094 9.71232110776232
451 43.302018223879024 20.463921090126174 -6.325015419892884
97 23.758809545040357 -25.665395125278863 -24.9079963154826
103 1.0259674005580368 -10.429316800527973 10.624636949787153
69 -4.965546799664644 -15.223639856637003 -8.459569492041135
67 21.30660622820277 -21.259311276728653 -14.898383767539627
225 31.447827197865145 -5.464184499131142 -14.1173282642674
231 -13.960586372014696 -3.8196732964492854 -3.775978133460323
197 -11.552210354929127 15.392729855266142 -8.184860627306767
195 -10.165148591913486 18.05628506932364 -11.253002130417858
353 8.317360264378518 -31.29498975596725 13.125017865198435
359 24.810771856923452 6.47173900249926 6.459416831720164
325 5.440394963541079 14.50166697465252 8.679396733300043
323 1.7520342225644678 14.688472932959973 4.713828145071769
481 -26.78460544183041 -0.8200348479074486 16.295570785176466
453 9.056606020324526 17.199247905543388 10.628345386904499
487 11.063362563676359 12.171669061506515 19.76899157239417
483 42.53139822383632 -14.086524741638701 -10.58944352571143
1 -4.671837733619588 1.9808966383048785 -8.683632873648998
101 -12.23187736033289 3.5064467291382626 4.925797989132871
7 -29.710117943624915 -0.60869606712154 12.593428460924743
99 -1.5872226403455545 -15.272769602523246 -7.898512999730628
129 -3.5883518269686117 -1.2341196380710633 -4.094859849509866
135 27.498073907179887 -8.886602830439317 9.423687072487178
229 -18.568596918238367 -9.51969526760464 6.528443175842406
227 13.184461273911394 5.7168205829195955 10.534397244705696
257 -8.223492693044895 8.002475785916126 -29.750136013456654
263 -27.935375237525605 -31.171445512861435 -4.225360510941137
357 -30.797035076259565 3.5520817657741146 1.770980049366966
355 -0.8895752053868704 9.29089912299949 11.485423102978077
385 8.037425358788445 -18.561237041799497 3.4592216727797735
485 26.041297093214943 -11.921697391911712 -3.6039224932921967
391 9.730478778603548 2.9413632239892777 12.386006153261775
387 -2.500435034734972 25.55262628652198 29.615556528005648
33 -10.352631129866701 17.577489992287564 -17.733451621835865
39 -26.006072778295096 -3.699543916075738 3.86767283265137
5 -34.21563985421946 -18.98577119767032 -13.278843822133929
3 -21.405609079100525 -2.1716603839744297 -16.16850657925098
161 -2.951063194252723 -14.846903035483688 2.905357130515816
167 13.498593859090548 -6.318814878563537 2.7911454626631578
133 -4.732078669094261 32.658289503758375 11.654838982651206
131 3.431766336942007 -8.385111260270897 -30.46692996255457
289 27.468826364978856 -8.878035243370698 4.699619033809394
295 -20.3085217198678 17.100623284701097 -0.45061918684247204
261 9.138864180334489 -15.32481499537887 0.9103545351365255
259 0.356520995251891 5.207560001980832 -3.973781294352311
417 -12.842588416616216 7.219757053055798 -4.211723865911249
389 -1.5296661297427852 9.163071767022945 20.82808335417221
423 -7.075525522064944 6.424586190970991 1.924639915703074
388 -17.455362457182254 -27.043680967462 35.536517881874424
418 -18.52881185337555 5.192052819036607 2.2655525089944835
390 11.39674394867138 -2.1050331385728347 -0.42692059755310235
424 -25.59829906996632 -21.443302598363022 -29.529311071956265
4 4.982131368276584 -41.42113096966155 -6.596152897654959
34 -60.716899521894426 -20.356418605417005 -15.356894110147355
6 -26.416817784112933 21.477266830587478 -20.783885327103043
132 -11.707218200894111 4.43522757194062 24.86827916923422
162 -16.602550944551822 21.6801811421046 -6.455461777282588
134 -18.502572933910436 -10.182125302671075 -1.3692682488402963
168 1.8553585436951432 -11.896767974558738 -2.022255266515671
290 -17.365275648719454 -1.602528284272132 2.5763202114247226
260 0.1063211996524944 3.0021208995084407 19.94355741162773
262 -18.72237733258349 16.90290437968288 9.575432272803965
296 -22.7300976472739 5.650503034291506 -21.740223517113765
420 -8.95311090130461 -9.32599589430702 -7.064929930423332
450 -5.864198886843372 2.1234317767214566 2.753958683074733
422 -6.831238366069602 17.65684540238803 -4.321379234860443
456 1.9710883116985034 0.02437470647575278 6.195232603921908
36 22.021395552632846 -2.698514986391607 -10.339431579926924
66 -22.074399591433334 3.099312319301229 -1.4106438738914664
40 9.302843642528211 -13.581097744703081 -2.8991052659102348
38 4.748049085287418 14.810385097179095 -15.836329435802524
72 32.93758093597894 -7.133691399669762 9.9273976080052
164 -10.017184414581397 16.295237865652627 -8.242812293628353
194 31.633791908427476 -25.7803376176477 27.083769745772035
166 -2.627632292124242 -33.960459932259795 8.138935360767393
200 -14.05243933200458 22.155791700626626 0.19996508328133367
292 -3.1913640991165235 -1.823717411052605 7.419897612929669
322 22.5491262254072 -22.264530277242255 18.23226877058564
294 9.160736166186368 6.855147015968669 15.137906078699514
328 -8.29511794477155 7.958527247104965 24.345796993637155
452 -35.226167490328464 41.071198865821614 -13.141080375889926
482 12.352042052361945 -15.805782495386607 -8.242961477929613
454 11.298498886611851 5.416117441894688 -4.891073454988901
488 33.278760138895436 -34.446310789372006 29.965763744938293
68 8.611799151782824 11.23757667910175 2.175461504138052
98 34.65182474535625 -8.60652076547306 17.78552626543842
70 14.322692247753666 9.260629978756027 -12.598080120753055
104 23.406594623394014 -29.033170281164143 -5.4294998897570945
196 6.401432325116222 12.464486469261303 -19.777951728009615
226 -16.003626569993912 -14.857895638836672 -5.736597944061148
198 20.91912952017594 8.577488100575115 -18.28646675284316
232 15.894847193204615 -0.26302796727311484 -2.671867092678326
354 -12.286031675163624 -0.6378025021586421 4.257644005127424
324 -17.184756317601515 -2.032574398585721 -19.67163209553976
326 -20.662336348946123 3.9486732217106435 5.275415654523804
360 -22.89291378070627 -13.056174112296302 26.94579365226904
386 -23.010243721960126 2.611795775073144 -22.856100324773585
484 15.61704868585829 6.724824312882414 -9.625731031899267
392 -8.590869821378243 5.357081633269585 -9.752777319872107
486 1.4244327119871423 -0.029443541649580168 -8.782387237960968
2 -11.118694094406477 11.344451730393 -2.406517146613021
100 16.789566639985196 -13.496945701325417 1.7964215418639728
102 -20.464937120127292 1.2755485528647514 -15.959801958388757
8 0.7287885402808247 -32.11930654177743 -9.139260400188027
130 -2.533200932336346 -32.739569861378364 4.014395860169258
228 -0.18708766881372127 0.9470200085416874 -6.881229301795425
230 1.7287739650618474 -7.875758927372657 11.770173653800782
136 -3.502992586970673 -8.056373336467857 21.983821914866375
258 19.60579656791488 0.8424744218785122 -0.4969791641281965
356 14.31569678918236 9.384014336916607 0.8688130449725909
358 4.975451343712663 -12.581176599909975 -8.260076427557149
264 -28.300777246036226 33.93992221532133 -14.896715149692126
43 43.883298208992855 -7.410471102461784 -27.97981637418693
11 2.1552163181939403 4.117864630569051 18.881806293406107
13 0.016292560106232215 6.120144499558527 -10.417806705084097
169 -7.651619774934578 8.912672657755666 -15.48835252618748
175 17.565270808410396 2.1924086882828813 12.135441936168963
141 4.892853090012313 -4.257901522448492 11.99395479950084
171 3.2269936036148414 -7.523343990376954 -0.4159493650247435
297 -15.111048942765697 -1.7947360990394903 14.929900390689681
303 -4.393122420712489 4.113933378563715 7.692448470539144
267 6.715874788565479 -7.126816864100146 -1.3174193045078701
269 -19.662230615429333 -15.118075917684772 -7.607787838078555
425 -4.727689221679653 28.7942382469289 -18.42436211611606
431 -7.126681185797508 -22.656001037800774 31.190099066526848
397 -3.8988936520986437 17.850750253420127 17.606575722920695
395 15.372211325490392 11.608888877166784 -19.220416052423523
41 6.492283832247741 3.0549756044808056 0.05799121432400982
47 8.259997601353298 17.694010683579606 -23.99993659923322
45 31.278279475217655 18.096676845690254 -0.2589826282992363
201 -8.619373454497751 13.782399429544299 9.488505460343946
207 -18.389589317565886 18.882805631708255 11.576612158568146
173 -2.6235449868958254 -13.253740294486613 3.9784164209803077
203 1.9134423684591146 25.697774527009067 2.006995175279339
329 -5.417096958602236 7.007265409111496 4.774163186387288
335 17.476951945148294 -21.21728821820844 15.117704223537832
299 19.966131810884143 -14.183630959047534 -1.3058880904668824
301 21.114814799419843 -9.422491244349573 -12.787751247675448
457 19.5684947674259 -1.7440883553207174 -3.7372481551656844
463 0.7803879305515854 -2.070611810318354 -0.6353233999328922
429 9.319357883932154 7.66878857541868 14.291115401758042
427 -18.866790602290845 12.280408077345871 16.91402593830941
73 52.02147062672707 -6.337478112072033 32.44237586295524
79 7.321701950446551 9.298970868378536 -14.461567577226837
77 -10.47103344055377 -9.697603124838443 8.686474186483201
75 11.563009772832766 14.785639781164507 -12.081979321823388
109 -6.023293069297795 12.985775092380633 -2.1214724850751163
233 -37.331817954166276 3.225054762615764 2.6609409143833984
239 -25.86037290403516 8.119252562236989 18.199397987202914
205 -14.322299600567398 -16.742581688854457 -11.929516925466995
361 2.755840863581485 -16.149427045473583 -28.14649033017392
367 -13.152062193589849 -20.20414495868881 -42.1638692687699
333 -4.129162528980446 6.288072325772309 -8.612234380294506
331 0.17317717005091257 15.45549791937729 4.5891002769281135
489 16.37643916417178 -1.7856401130867403 -14.629744588582197
495 -7.499236099440131 1.5686389488073835 -25.87588245664424
459 2.2104696980806393 1.8099206997262702 -6.4890556713764935
461 -14.627614971761348 -7.03634072273976 19.494020427244845
105 2.3370447156418006 -3.395727503762279 -24.395498555739962
111 28.03314827091034 -11.876789051728329 -7.661713564754603
107 -2.1607595397049892 -9.21452313501213 -26.99080351025121
137 15.122992734090527 -6.3039136142584 1.167959898904666
143 2.3496544777671393 -1.5060528073499597 -0.9738838695527879
237 -13.151472892473777 7.726273822225493 8.68015408994098
235 0.6774052835309676 5.734261590164891 -5.825647003198555
139 -19.773732203721178 -13.149084447015866 18.98518465302322
265 18.93404395831673 -15.632595554968916 -14.649254535400123
271 20.957073848665413 -1.9756700723808636 -22.771483381662353
363 -13.68318557866415 30.181508127174638 6.653924547822181
365 -3.561499794232318 12.963874955672427 42.257710752143296
393 -6.498176377010437 38.44243630948958 -6.946029605561676
399 -1.3280631658070357 28.684317088150824 -4.429474800408609
493 -5.584141174830959 8.843669347787051 8.699061296504787
491 -17.31598157802987 -4.3019206850247 -0.7529479527689815
9 16.58103244407021 13.157177024463573 22.864636799335695
15 0.7053172157270723 20.870311299896102 -2.3114832877590015
14 8.489165524515887 -5.00114469938909 -7.142316403618734
16 20.61141995687177 5.675497423459246 -12.10536974105579
140 -13.062855936031545 6.400906678469105 -2.539556704852372
138 -6.919186864033517 -6.012331153845024 -11.72017270170476
142 13.727570484974528 11.887857540770538 5.481265295999102
144 -18.74875115900191 -5.003663755495077 17.383265403800245
268 -25.968098938231446 -15.871753122480076 -1.1727289262890956
266 -5.78185109070178 -13.004317438885689 -6.20285309383137
270 -14.13166087453603 -13.113217877270815 -14.852383154308932
272 -4.8615795357870155 0.46510096736761014 4.286902663111267
396 5.679729703268326 -15.724178329548657 8.730484409022587
394 7.283285523458594 12.031391739753573 7.240921961905649
398 10.705506773754122 9.081729671864334 13.813837911060173
400 -13.396271897253882 0.10654351547427762 8.782095516229246
12 32.9234790404243 21.856829136636474 -27.577325260287754
10 12.624383077152437 -9.529768801195454 3.5276274558842386
48 28.33377228959822 -8.206105567873786 12.364675031014283
46 -2.6641099566341357 -6.140349012767353 7.90784361971296
170 -2.898845822819917 17.43498709297399 -0.7805437879965019
172 -7.222959084620009 0.029622923756965038 18.96930252512815
176 0.20811831320593385 24.65189227266103 10.971540300745394
174 -23.21009859687236 -0.8440459967797653 32.533625923186285
298 2.7957889052200904 22.169793175011552 22.910180013446368
300 4.664159549874891 -19.675528910251952 -6.688069444271812
304 -12.817692778080703 -3.179595928982371 23.777821741899448
302 -1.2418907223441227 -20.7860840663123 4.982647703523964
426 24.71798925552705 0.9303615994669856 5.600109176893029
428 21.50933154155822 6.265902897861279 -2.865238301307477
432 -13.034951021324611 -10.420223181082013 6.117281461937517
430 10.283013028133304 4.0494738419343665 13.771839095703106
42 -16.029875842316077 -15.444534035182299 -34.400142924116786
44 -13.083990231274855 1.455482330212672 16.200243957145165
80 10.492518598616266 -10.039519859103311 -0.8956272167584427
78 20.680200747080388 -16.4191217041986 -5.936403998511543
202 -8.659385154000525 -3.539343032827214 4.636237568550475
204 15.403745897598005 2.6990084274934554 4.891608926622256
208 -14.222704915159701 -15.495859441901201 -5.0917041113672
206 -1.1932176560293974 5.338209216718071 1.768265408751468
330 -20.747248732668456 7.056615837806898 -34.90743548194651
332 -24.13329310531614 0.39079157636089884 12.193502121347226
336 13.94838732484789 17.094629731205686 -1.0295141894606996
334 16.7961512375013 13.712853651223835 15.78496158516031
458 29.442160680341978 16.052403639834186 -8.570951003882943
460 20.29111797649097 -1.8950054179789066 4.739964399074505
464 -1.2357769497259268 17.876740982537445 -15.871399504168517
462 9.170724577738024 28.839500226866825 10.591881200773535
74 -14.900538602771364 -7.043515381945751 -16.16640291050125
76 -6.714877767560468 4.100440237068511 5.452654970705873
112 -9.88058751046936 -5.979400915210982 17.22677698309129
110 -10.266068714927163 5.7718566580623785 -17.972406748793848
234 -15.630531988373354 -18.39055635093535 -21.95913782164419
236 -5.634058904456671 15.484707131688493 24.137894573836
240 12.273617095463967 21.337454850655057 43.437334910189605
238 2.2837820972751812 -9.172964829046421 -4.805697494984272
362 5.136808850238279 12.7636448678769 -13.997679579756324
364 19.16395020249757 9.463541692254653 20.79025289936215
368 -19.485392567453562 11.45325193406937 4.9540197629989375
366 -2.59892897806619 2.425628013315107 -9.576841362243261
490 -3.6889757177306772 -18.231854020592444 17.94523900407669
492 -14.015805401398413 -1.1092827885104657 -31.645452235037748
496 -1.7366608834724806 12.904356759448008 -36.69180774425977
494 19.433027832536506 0.9166433495549984 -6.95936069550211
106 -15.452225476206781 -19.59777723353968 14.409679302938978
108 51.92704815948545 11.097710077594803 -10.907641986410143
21 -18.31905644126148 -28.09106779150591 14.21437033537742
23 -17.651760683932824 17.192084999050753 -4.782904402400627
19 -11.898486658092965 -26.261694317084274 -32.488734610239916
145 -18.84333100384459 19.565317996946053 14.1826350841387
151 -2.4259730486658726 20.835285033930674 -4.615965723862376
149 9.87280890996463 15.197170028385425 -8.384785999604732
147 -8.209917929712615 -2.65964982337687 17.480762259164013
273 -8.274889806435844 -16.416887921935924 -11.401821578357982
279 -2.7718160290294986 9.023199370320922 0.1150420092523877
277 -21.66993060011533 8.963707600817623 26.146649328785184
275 9.565432203580025 -8.433111966962885 12.196685336862314
401 3.391471682063006 3.7545162614171326 19.139428948054633
407 11.664001780474713 7.8761562214111915 2.7088404824722496
405 -13.886310213811507 -15.765310810994778 -23.68502848551625
403 10.577598124982904 -12.334615898221719 12.771165006197895
17 12.178053222283665 -41.88783051757236 -6.857664251460188
53 -19.079645950306066 9.933014298189748 -16.14223325273031
55 -5.9586778222381716 -1.2363804809709562 31.323323855199927
51 -2.0689711386244807 -1.1400154958412265 -5.311831500513075
177 16.864670881169474 -14.065010221273498 -7.557923090589843
183 -2.3895712358342056 -16.974657926050963 1.2637008935089324
181 -5.295659745465478 -4.682992459038937 -6.68726513715063
179 -9.43370110291526 -7.7819590500999185 12.53766588732851
305 -24.20962723998876 24.499309683164416 -14.81324094779275
311 24.63843092296371 -18.73915553645704 7.61128789044101
309 -13.24997951018356 -12.09578468496414 6.358429961323479
307 -40.922976538437595 -3.8838354402075552 -35.41936421030026
433 4.927391485613682 -6.082826343467405 -15.724639408448098
439 -2.144744022676483 0.6621584120647567 -6.12573118078686
437 40.27198069133128 0.7474149080793673 -19.47446329480381
435 7.721348045297979 6.741881311820314 -4.525377864549036
49 -12.346901828935533 34.37126984479757 -0.17725646515690846
85 -1.9273054535244392 -4.08968201574098 -10.414900507730724
83 -11.22200128609545 1.766463687433018 4.272324446648487
209 5.9786398924833275 6.501386841377349 7.447577904442952
215 8.746583166425713 5.561068566192366 22.53847059090249
213 -23.645688130172406 -11.349977096176902 -8.81425633499186
211 -8.208943512103414 -21.903323423336758 12.439487070432106
337 -0.19481431771487562 -9.165515871728827 12.061392366178879
343 2.561938023348038 -3.7428817371735272 12.67494422765813
341 -2.700604250977621 -16.740423111585507 -33.088864854547346
339 4.735066213731257 22.303898042716646 15.684610810098253
465 2.6299136159032357 -4.003685677847007 20.661896722786498
471 -7.282506410079387 -12.456737959136689 12.235883319526343
469 -3.2737379599931162 5.295600107731033 -13.940909000550365
467 14.138458444350059 1.9838602255664144 -14.780995812368788
87 -12.979811019220794 -2.9006652139198965 19.7488372251059
81 17.21799931788017 -4.398215697910755 14.391679428857165
117 -2.601806727438481 -18.82272477144726 7.339793219008152
119 -11.597055412573981 -3.415672083778233 -4.458374285254564
115 40.789752505838926 -17.08030255604738 0.8330436544298143
241 -2.3416953494828827 20.161535741215538 7.863565108556967
247 26.064769741776395 -1.6284155110573675 12.178004986740712
245 16.98383287354771 -24.66353955959475 6.993800726731366
243 6.702534701106468 -12.392224445581354 -4.898543941318087
369 12.948002148641537 2.5867142072670237 10.276902882900234
375 8.451271299195653 2.0817237250547 3.9190405262281227
373 14.696793959459077 -20.87425746399873 4.6889212175481
371 -10.391710932287983 21.069556321236565 -10.92016619253967
497 -5.74339233867862 -11.663157529469123 9.593703548124402
503 9.806744424894584 38.638515745297305 12.38563445005425
501 21.262733000575576 27.473279765864078 10.29308638265515
499 -15.350908865266925 -2.601808100185525 -9.096512052028052
113 -21.29475913064736 -13.989967766017125 0.6662888305547161
86 13.474709800767704 -0.14766829788653085 -21.321427138989254
120 13.887526751804005 1.9813594589763932 0.7471584685804972
84 -4.5338387540541465 11.381362541537392 9.534170178562054
242 16.95725618422992 -41.20893180761118 -17.986958440796535
212 -29.70421717272828 -2.876041249974825 -7.346537732619038
214 8.082863433023556 2.8884811329720135 9.720949438986855
248 -4.524298860702429 0.16672298190997437 -5.32627386880953
370 8.631210815192432 20.6525217417977 -12.862298204695438
340 -7.938335796110366 12.059069624982136 10.23951741182649
342 -13.130603361272803 -26.281080451172567 -0.17617229938796605
376 18.34757787422563 -21.271895434226824 -5.074656676415161
498 -11.118116865294521 17.761543639801193 -1.0396524351924572
468 -8.88015307727006 4.067328363522175 -1.874035833454677
470 -19.574146809002507 8.388722531750657 -21.43754937189536
504 -13.63946045092976 4.690808135130306 5.8654193392448635
114 9.035704169887493 15.478009362928843 -11.91264985749665
118 -2.6254480001799796 13.100191192140274 2.615177638791674
24 14.196051287876195 23.05984575874937 -6.212256775313833
146 -30.34515255947836 -21.760759383109082 3.6517937971078127
244 11.535424948445124 -3.8816527713107116 -11.405213181236125
246 19.60065681619477 8.886084936841653 9.577031495765238
152 -12.910507600198743 23.61786942457811 -17.70758094894683
274 -22.573102290971722 5.6785607804371345 8.106331112778067
372 11.993590812015407 -9.559170418405015 -8.859815951338588
374 1.4535332538588956 -3.8403844656726 -3.7767958772729484
280 9.268184180807191 17.349726625601132 -22.793796342644498
402 -10.795408733959334 16.22147254527015 21.612622539124107
500 -10.586225270715135 -23.199708029380957 3.223241101663583
502 -2.52084838785674 -16.26931225947182 17.02880792061971
408 -9.85756714778536 -2.918950932747173 -4.705582162838428
116 2.409894649471192 -11.722079901223731 4.930276211043239
18 -25.295188444068174 -17.622583799826725 8.220955258863976
22 58.57423408162787 -5.317021045085474 -9.31549553745129
56 -7.867090542285846 -3.0516911986063624 -3.2024270314453007
20 -16.316029226680474 -6.530588637857023 -23.180587625390377
178 19.171187374796954 -29.473015576647764 27.877312874624813
148 6.160820199290471 20.507410137387932 7.223530605657598
150 -0.5654325906835608 30.31389560953788 -28.053985442306086
184 30.09554593833579 11.623091139615358 -3.8466923197871807
306 -13.725521820179813 7.137033854771123 0.7073028940052767
276 -38.32239911741112 5.075535090850909 -15.699226178389065
278 8.75075539116436 1.6752980011552128 -13.938749537418772
312 -8.71833485623388 -20.408260555858128 0.21319293303629375
434 -43.92538439362683 3.791942904418103 -3.6295712898210044
404 14.405757937991323 -11.59075323603653 7.974319504438253
406 22.890567466929447 4.498354865049881 31.794306748236753
440 -0.4863456814600097 -1.5490064264672032 -28.633790895097388
50 2.851409137066031 46.18250902499729 -1.154154670782966
54 20.346976925988454 -4.132317263021356 41.9483605658024
88 -3.0915584279396056 -12.44464165675031 33.59422293641335
52 15.825167803508434 7.609097004394771 14.480194554521203
210 22.19235272652986 1.1919975071046496 -5.291774259779046
180 -14.433800801433813 0.38015971505301743 -9.152004558495388
182 5.7166598230675625 -4.868766550024041 -26.459485318410636
216 9.022684506350705 2.838223089003862 14.496992497313821
338 3.272876007474458 25.490726008725048 -9.08941793775369
308 -1.8719313507751059 -14.272397730587853 -4.5585584141115145
310 7.404205749057963 -16.017478177741513 -13.015755417381188
344 -6.355505572014729 -22.457898557802487 3.780181033646466
466 12.676001515980564 33.98749644644416 3.7678727984537437
436 -15.852985723455602 24.95866677572635 0.48932240381849207
438 -17.06835189652356 20.774857806533326 14.201119436081465
472 10.641777679179759 30.91675559827412 1.995135429183862
82 6.233744594724749 -3.0523045781040548 -9.235870806659902
63 -1.864267537146031 -3.853014402594042 -0.9722233468033242
29 -4.869536190767514 -6.1986785134025615 -4.401960629208083
185 7.507170873869638 -15.671188953520753 -13.282600215909582
27 -17.771097695878307 14.828360399702687 21.07403103347923
191 8.612814629908366 -1.2511400702446713 12.567808835668599
157 -4.155843927518475 -0.9987186127537452 6.221242955675232
313 19.175649240914556 -4.806874002523857 11.156506395064966
155 15.153371568309149 -13.203216626460687 -20.030163547351044
319 4.326040294213445 28.982228487313378 27.814397631314495
285 -16.891850581651696 10.014535980794937 -14.762263006679783
441 15.554173263136342 -21.139321352066425 -26.585561646704424
283 1.6694008431721574 -14.554886210013523 1.7846370583393876
447 -17.245797407547062 23.702770480968468 13.478878753974161
413 6.241011574930538 37.71182156215905 1.8198550685616606
57 1.8947816111839222 8.039169236588949 -42.094044522394704
411 11.529849543398344 24.814190024527473 7.296538096366162
61 -19.655157573461373 -19.4491381092968 -2.9623884521000767
95 -1.2122768617749666 -4.22311887835812 20.939173249356898
59 -7.510176076629043 -37.50514752888231 -19.77538607990334
217 4.620793768459892 10.333168195225204 25.490777702111043
189 31.57126195821162 1.7487026818628648 -9.854795789873327
223 -12.588817685940356 -19.201494827678143 6.200426377143251
187 -15.473477321291682 10.22055490773418 -3.109285081963297
345 -2.767950715020635 26.436399419842438 21.28932494186884
317 -0.9313531138531406 1.2789132530038436 -1.8068855184645622
351 -5.198408630006265 -2.9875643919212673 -9.208165338750524
315 5.398935463744248 -22.1035080813824 19.859824528728577
473 9.145745582006686 -22.72524067026695 -15.293438815143498
445 -13.35608246897988 -11.193670852323816 -2.132822807531018
479 5.208583480902157 -19.150008892351885 -2.269725915507269
443 -19.174740362286393 -2.9847412688987127 -14.127600282055912
89 8.417431533471559 -8.243269679713626 2.488853529724392
93 -35.88278143370732 4.78828974462411 -7.080577913427627
127 -0.07287538523789028 12.955493559266637 -17.847377102472837
91 -14.095950045338297 4.783535191814182 -6.5474037519235955
249 -0.3802666438719589 2.6738671977219757 -25.05514678753041
255 -14.146889476682796 -6.448190283419582 11.94496215294146
221 21.292155492325872 12.83890100710166 -6.377761612970456
219 -2.7228764538368777 -1.1300936992372386 -24.91847375720577
377 -5.445251372637164 -4.6183217432010775 1.9294152120677766
349 17.547601915409263 14.395982391508007 1.2226266977972173
383 6.181764029711697 26.803249937228422 15.983515874106415
347 3.16918919703018 22.93427440611272 -23.4781677003749
505 -32.08397894507542 8.252612553441603 9.05826268825672
511 -29.77663908201388 -14.598138167127246 -25.087568696312296
477 32.008911227904385 -11.916990083420574 1.1337244795769454
475 -7.096668007530945 -2.219641098804787 30.555590025264937
121 -8.285839469802374 -22.46095905027436 27.244493164868423
125 -17.949622813357838 11.671517462905484 4.199605175940349
31 3.845866494305433 26.713620153890442 -5.789759570447193
123 -28.35152748640486 -5.359625888704239 -11.254034684877011
153 -4.851028409451614 -14.817448003683378 -7.193824858726835
253 13.30415414698146 2.814322724071342 1.7917170346802147
159 -20.615782850829618 14.716686123146134 -24.37046950605417
251 -9.728130741707405 -8.40158794321825 9.989392046723669
281 -13.263200269732797 -22.81888793455914 -16.973003484564348
381 -4.052156545136419 17.501565594068445 -12.11281065188324
287 18.595624005196434 9.945641425038716 33.32563342110111
379 -9.357656110406577 -9.643563732068438 -22.125138534307442
409 -22.594948604025117 -19.399329836812512 -13.612340949321512
509 -20.130664233505932 12.05895242532621 -12.505253260243911
415 0.4436442415994541 13.971614330788803 9.786361476997032
507 -14.001753634094124 13.650248725154752 12.68933537584731
25 11.316508711587666 -11.337857923796387 -0.5201379831608015
28 -7.526851468391972 -7.235144694062627 -0.7666340345040841
30 22.50313155843449 -10.50848745683829 -3.524789906924254
32 19.928420382001697 -0.9973772032226004 1.98167858841323
154 -25.130960560355216 -25.044728306792848 10.502773694877211
156 3.9155989064723085 -0.904106665334759 -21.098842689954992
158 9.632439067841014 12.69094992759978 12.63914783611342
160 20.75244725738432 -18.883886151610035 -23.44935791604718
282 20.696534003103288 -1.4813457106494106 19.28672084185023
284 23.182660840796654 4.652824687500959 0.22893768690859534
286 -15.831748266724624 2.5766508581112015 -10.182202197651742
288 17.12317613742992 -14.93172069342621 8.695175763525757
410 -22.62124733108689 26.26080601189968 -8.318155071812036
412 27.272214252275216 -15.685435727939417 28.50832001601846
414 13.36349643928391 -12.405920088736883 -0.8759105359920067
26 -13.18230855859207 -3.275617106217712 6.67653487258344
416 -4.038141705031265 -30.086361119550638 -5.062566922819039
60 -11.359265075004048 1.690924018010289 -10.75560913875394
62 34.10748913864209 26.568468933569903 -8.817356996798209
64 16.96251375015382 4.1531839409888525 11.962553355435107
186 -37.34390785958784 -18.641440448252595 5.081539559160398
188 6.207236613835989 -5.110243957889109 0.4264577016904083
190 -7.264691638263001 5.991492959847998 7.104965945693272
192 8.034208502874662 5.8926822580091525 22.498085032284795
314 -5.276013734974359 -1.5040153814109138 7.1364734874673905
316 8.291032992826475 -20.974009937439206 -7.272491349062656
318 7.444718100886616 24.893876944719974 18.584765274673348
320 5.962667810229687 12.847871657222933 4.532595628373028
442 -3.990131741139019 4.292736127545829 -14.385129242248231
444 -16.39133376111039 15.904189490744942 -30.401247148013198
446 -15.051895140615462 2.7655089122488197 -10.756597599223523
58 -13.794513986967981 7.145330763835498 -3.970053058818658
448 -24.097265762051773 -2.6229521841902486 10.75381713335046
92 20.46362239117525 -8.73359482639974 17.7191352518267
94 -15.809665358590722 -43.04974400085722 -2.579473559454781
96 -5.176644469806017 -7.706309916574284 -8.37049343809643
218 -0.28498699970848573 20.173732328131003 34.285313722870946
220 -6.327780748519296 -8.85428642422281 -6.606021186060213
222 15.587912376246333 2.396114799785648 15.308800901441344
224 -5.69744262219934 -6.477866312349189 -34.131302651679
346 -17.62921703948358 -29.915538037951578 -1.4534428467327136
348 -3.997634782965531 7.960141713879315 -3.302764497923959
350 6.541055430321905 -32.79679237124286 12.833391441182245
352 10.238545230998238 10.311888315776073 18.639885649966523
474 17.52386242702508 12.993674762549848 15.473112048643545
476 4.876744080560715 -5.941182903140953 -21.902687856664254
478 14.092281729472543 -1.9733457249279056 3.4298893128274854
90 17.55093379330259 -22.457924784063973 -30.47442200795796
480 -9.549889338100586 9.229824108425637 11.407641792414562
124 1.9143342841739057 0.7046724578171437 10.711547469025348
126 19.681336853742376 10.757628818343893 1.0489303362507127
128 16.20722464817553 16.6461919373368 -4.276228072927197
250 -16.891269715276465 8.096197338761026 -8.72600393472324
252 -18.58075498486809 24.25363763298482 9.064312099347267
254 16.707232685910817 15.258677364714396 3.769438152785098
256 -7.59119010515524 1.0160535294964268 -3.7316049739429777
378 -16.099040213564592 -24.016892100729812 14.738982143881163
380 5.802133563719786 6.826918642662483 -11.665794278468642
382 4.644839226611193 9.038464857126545 -13.107072521367936
384 11.077285985838191 3.134503496802077 -13.245723246930918
506 31.330655777032185 -19.570486191341967 10.951367565655227
508 -12.132897635167858 7.460098166809772 30.71743924366868
510 17.276928091511817 -6.8496131266758615 -0.09334749088532658
122 -9.77373108503453 -29.008323252225964 9.701477254805367
512 -0.8037687678578607 -3.367653227588277 -0.8306214430249848
