LAMMPS data file via write_data, version 22 Jul 2025, timestep = 200001, units = metal

512 atoms
1 atom types

0.1945484695700106 16.899346807992316 xlo xhi
0.06211327897518082 9.807051761024915 ylo yhi
7.44025660014163 23.77203539985918 zlo zhi

Masses

1 12.01099999691024

Atoms # atomic

65 1 0.6722919270180232 2.324299245108515 8.612561493437635 0 0 0
71 1 2.1624782076637117 2.326897380142903 8.816774333374658 0 0 0
37 1 2.82060966660297 1.1973364812606693 9.003721713039257 0 0 0
35 1 4.194292237151666 1.1605878002953711 8.878355360722377 0 0 0
193 1 4.888803076029277 2.4077624502573074 8.995892863073626 0 0 0
199 1 6.285595579017844 2.4532714877276174 8.665166729260136 0 0 0
165 1 7.023120617888774 1.3592839765449254 8.849537694161096 0 0 0
163 1 8.332117110908516 1.301487512843575 8.499868166160784 0 0 0
327 1 10.522064928705012 2.36797058569218 8.204706979986966 0 0 0
321 1 9.113155203000014 2.4516017047513725 8.445935058393184 0 0 0
293 1 11.195968684016124 1.1743583763370367 8.226426442918049 0 0 0
291 1 12.584240635303079 1.1789340518766063 7.98485649711073 0 0 0
449 1 13.332918814219855 2.3905124895940983 7.977751578352451 0 0 0
455 1 14.722327193671592 2.3933850116892583 8.003020049678728 0 0 0
421 1 15.35772989642029 1.0920566444862219 8.123972525011869 0 0 0
419 1 16.619248650854395 1.0941575927465756 8.634887620149351 0 0 0
103 1 2.086258587677066 4.707355821969921 8.843162258067462 0 0 0
97 1 0.7473744531190797 4.698591970020948 8.501542799167279 0 0 0
69 1 2.8648380794262382 3.5756653467599397 8.826513763740868 0 0 0
67 1 4.183800805887097 3.5957633218255687 8.87313130063216 0 0 0
225 1 4.874739874079613 4.919086234024917 8.802410959691679 0 0 0
231 1 6.256764140118806 4.959055128868441 8.704316075388752 0 0 0
197 1 7.039069748741884 3.7414884046541648 8.530806606136272 0 0 0
195 1 8.445345613317372 3.744909454003872 8.407338496570059 0 0 0
353 1 9.131751494292136 4.8921820343882505 8.440085476870017 0 0 0
359 1 10.44005774088594 4.906071153299376 8.164721734111023 0 0 0
325 1 11.161790061523313 3.6168143231184615 8.11835757711932 0 0 0
323 1 12.621900521614013 3.620149271054769 7.937918465841706 0 0 0
481 1 13.21592893966995 4.90016925404411 7.999542262990641 0 0 0
487 1 14.689093287061304 4.7708927277005335 8.231930103047912 0 0 0
453 1 15.386264518422095 3.528025917311732 8.187308694210746 0 0 0
451 1 16.694644315123426 3.483538779585524 8.454970287985297 0 0 0
7 1 2.099067909289546 7.174844588788567 8.749585804037418 0 -1 0
1 1 0.6862805494862569 7.164977960577455 8.602626098444066 0 -1 0
101 1 2.737139946743732 5.940627168719097 8.863644807003705 0 0 0
99 1 4.211823673420167 6.092189453493784 8.727400655365075 0 0 0
129 1 4.899194674714714 7.29527417638233 8.789317587856942 0 -1 0
135 1 6.271429047682831 7.3327728558388205 8.690533233554167 0 -1 0
229 1 6.942758330096536 6.10274127434928 8.816284771466128 0 0 0
227 1 8.40473376111206 6.1023889392689314 8.558264170624795 0 0 0
257 1 9.04748333391876 7.261230484556422 8.635751192470444 0 -1 0
263 1 10.490002935226306 7.321346030050247 8.193855598080106 0 -1 0
357 1 11.154859059497714 6.09912376299091 8.353212088956452 0 0 0
355 1 12.572634441231461 6.047815835145337 7.931938598318512 0 0 0
385 1 13.405816575731043 7.2535175959939675 7.796355920096715 0 -1 0
391 1 14.720957812172884 7.283794012556825 8.19617152421749 0 -1 0
485 1 15.436236156341527 5.99827951124034 8.243960290891103 0 0 0
483 1 16.744254786199043 5.924514852232908 8.445996635454785 0 0 0
33 1 0.6776505130263193 9.648333547825711 8.392289458701551 0 -1 0
39 1 2.0079017650041924 9.675570430947534 8.841740658268083 0 -1 0
5 1 2.791679056442163 8.405593230911894 8.853234507554284 0 -1 0
3 1 4.164878043292069 8.457587139996193 8.78618918942502 0 -1 0
161 1 4.871939035475427 9.767394192991722 8.835089143425947 0 -1 0
167 1 6.2964284057775535 9.7723149845105 8.704216694435537 0 -1 0
133 1 7.023698842194107 8.616298266689752 8.536578137402504 0 -1 0
131 1 8.40115486704322 8.592739389060645 8.424278438178272 0 -1 0
295 1 10.479551114367611 9.769196525013614 8.195295828844733 0 -1 0
289 1 9.150214102573786 0.09228598450546421 8.559145114319968 0 0 0
261 1 11.207390517822992 8.500718667615029 8.186048364576799 0 -1 0
259 1 12.718862729134669 8.473366223692885 7.898071060365622 0 -1 0
417 1 13.341159429274557 9.748861912708712 7.957564929035193 0 -1 0
423 1 14.60829696978798 9.707337141951276 8.188461654511332 0 -1 0
389 1 15.371726552418176 8.485761292481023 8.23080848731597 0 -1 0
387 1 16.71476162002942 8.375401600667239 8.47122358674639 0 -1 0
4 1 0.561421855540134 0.8159523388386909 10.596229587215733 0 0 0
6 1 1.9388926678035792 0.7711062917866631 10.93920772320932 0 0 0
162 1 4.013871855916102 2.0322978090521655 10.921161638367328 0 0 0
40 1 2.6435698599465023 2.062892942213415 11.011018956733482 0 0 0
134 1 6.04533027990391 0.9302543740401691 10.679207916571066 0 0 0
132 1 4.6719063980148965 0.8399022022645642 10.906317470772944 0 0 0
168 1 6.774433538104282 2.108035237451324 10.835174122315783 0 0 0
290 1 8.284087023515216 2.028963976858449 10.50186816466158 0 0 0
260 1 8.958394344305818 0.8719190828438198 10.612799045603744 0 0 0
262 1 10.30516755350355 0.8500327023432103 10.266687585852845 0 0 0
296 1 11.081218249220676 2.0785347956012594 10.245303674337944 0 0 0
418 1 12.410121257696758 2.0781291549574727 9.963644674904732 0 0 0
390 1 14.490045749925157 0.7833299637321707 10.16749032170842 0 0 0
388 1 13.162830050269516 0.8173730420938324 9.953600177548854 0 0 0
34 1 16.54211284535421 2.0607780718648536 10.516238328421757 -1 0 0
424 1 15.212208976306977 2.0052707248043333 10.218236818144666 0 0 0
36 1 0.5433748741838469 3.2800941189211743 10.500635771815833 0 0 0
38 1 2.0119564637029046 3.1968719149259446 10.867186819594183 0 0 0
72 1 2.6288486210554356 4.418914880014799 10.825877661653582 0 0 0
194 1 4.004094630820127 4.498090530118533 10.859771038222021 0 0 0
164 1 4.721181864033868 3.272314981184948 10.917536772281986 0 0 0
166 1 6.063104306958799 3.261189945142846 10.869253232880936 0 0 0
200 1 6.761727361491551 4.459946601970286 10.693479158797935 0 0 0
322 1 8.15156757475338 4.527668695386646 10.390908087213026 0 0 0
292 1 8.946039093488878 3.326188411532029 10.411509743200321 0 0 0
294 1 10.330384715152373 3.306486896673066 10.153915851253553 0 0 0
328 1 11.04272831084866 4.506553272026088 10.168886827015772 0 0 0
450 1 12.425487912878648 4.5302409238729595 9.860531078491391 0 0 0
422 1 14.473060667578507 3.361489393830574 10.04397713391932 0 0 0
420 1 13.08348497468281 3.3613301578596775 9.965434460070288 0 0 0
456 1 15.130444501243941 4.516014128320275 10.326836076117434 0 0 0
66 1 16.485382857563806 4.558362773176638 10.463218821634811 -1 0 0
70 1 1.8770134789286006 5.613946849397632 10.807284193638717 0 0 0
68 1 0.5256332351213753 5.714501539127447 10.501439124051199 0 0 0
104 1 2.6049181792158547 6.860449979987029 10.810120357684934 0 0 0
226 1 3.995740466880231 6.825818380152087 10.823460247101274 0 0 0
196 1 4.71459759945419 5.638282028188728 10.73353472115749 0 0 0
198 1 6.12972671056841 5.720018202230483 10.782011542740989 0 0 0
232 1 6.896737734621601 6.944506043403923 10.757641358872759 0 0 0
354 1 8.242312061825762 6.925790657912804 10.548428394997224 0 0 0
324 1 8.914280078140322 5.734442059659628 10.57021443046438 0 0 0
326 1 10.273343530943437 5.647417943821619 10.197269401431658 0 0 0
360 1 11.052108155391808 6.921010743096172 10.334864998697636 0 0 0
482 1 12.40905250924431 6.8937484752357765 9.848884311099795 0 0 0
454 1 14.438943760994569 5.734531411358359 10.223959617829102 0 0 0
452 1 13.064645653718282 5.706952084271806 9.95332149819896 0 0 0
98 1 16.537497461663662 6.925395128219349 10.55561783010581 -1 0 0
488 1 15.105515024921214 6.905137658903707 10.220039471616655 0 0 0
102 1 1.9100451501603428 8.101662097330173 10.794103929146157 0 0 0
100 1 0.5261544851813377 8.135526366263313 10.553193230758863 0 0 0
8 1 2.634991628765506 9.309777563533613 10.783568101447724 0 -1 0
130 1 4.025606015454462 9.280390687116327 10.776775972760195 0 -1 0
228 1 4.685232598154239 8.15374252319624 10.818348530389692 0 0 0
230 1 6.1277469277861885 8.197380083008209 10.681004396860201 0 0 0
136 1 6.755927628209702 9.362670887953902 10.720711964249347 0 -1 0
258 1 8.153422274719805 9.460528896994365 10.366267851882633 0 -1 0
358 1 10.345719283541955 8.131981078408582 10.259908728862687 0 0 0
356 1 8.92937297567221 8.192890261742821 10.534616806602555 0 0 0
264 1 11.073712375782828 9.317005572131118 10.362163073045373 0 -1 0
386 1 12.344903509003966 9.336454790653566 10.000086250371348 0 -1 0
484 1 13.126188574001686 8.140633597678777 10.115482288922024 0 0 0
486 1 14.508554679246 8.06589650338765 10.192639780566184 0 0 0
2 1 16.542555685635776 9.349077292648088 10.472696831155284 -1 -1 0
392 1 15.214580923254143 9.352310581762136 10.231360353155862 0 -1 0
11 1 1.7859142566123072 1.6809582424602703 12.953412617815498 0 0 0
13 1 0.33105328624283725 1.7455440546012186 12.68153768709131 0 0 0
143 1 3.836327047114896 0.48504822273262144 12.879348903010985 0 0 0
137 1 2.4611698659896932 0.452980804439704 12.959082061903366 0 0 0
139 1 5.963183276124914 1.7273426690256994 12.755232734700861 0 0 0
141 1 4.609420084249701 1.6623614460294345 12.928702060367328 0 0 0
238 1 5.947059914527291 0.3064562431827379 14.869875599901771 0 1 0
271 1 7.948702600126714 0.4872676489255564 12.505647633719496 0 0 0
265 1 6.607231440517088 0.5003396172992967 12.670758546350015 0 0 0
266 1 8.069021413391177 1.4543767541610326 14.753323017673003 0 0 0
144 1 6.683212715869577 1.4908740637141498 14.792752955120381 0 0 0
269 1 8.718077210923868 1.5921504545621756 12.69771885938746 0 0 0
267 1 10.080303342637992 1.6452845559320466 12.366621576376208 0 0 0
366 1 10.13250048650102 0.22757423700823143 14.459752949340967 0 1 0
364 1 8.74700961982681 0.29426060547760624 14.730053111721762 0 1 0
399 1 12.150658352736132 0.5812459457487106 12.21705980292162 0 0 0
393 1 10.766603899939845 0.45507030887212974 12.434140945931388 0 0 0
272 1 10.922274820006303 1.4565148072273264 14.300480822284857 0 0 0
394 1 12.24079643088335 1.4292686165384625 14.1565412076923 0 0 0
395 1 14.15297222948472 1.7039063617724537 11.981030145270271 0 0 0
397 1 12.83634267040272 1.6853522438698267 12.01822887946302 0 0 0
492 1 12.902677502038511 0.15670199059041462 14.134734782618793 0 1 0
15 1 16.36043102050464 0.4784358449484842 12.536272229131093 -1 0 0
9 1 14.913646877129347 0.45863692098061803 12.206473976084698 -1 0 0
43 1 1.806333656941145 4.210020916223582 12.888116324236861 0 0 0
45 1 0.28756546176317344 4.204871748399188 12.555085870165852 0 0 0
169 1 2.525547881389419 2.876210882069506 13.008570202770002 0 0 0
175 1 3.854233969377765 2.9214246601906306 12.868711202028852 0 0 0
170 1 3.932764118906687 3.893913830767072 15.082418265001815 0 0 0
171 1 5.988850144276762 4.145465444340229 12.950021682788801 0 0 0
173 1 4.630999176940496 4.136236963493704 13.066365263906382 0 0 0
303 1 8.08876130907245 2.8770751217695922 12.625377553985823 0 0 0
297 1 6.774783685042795 2.922912380815653 12.828573676123096 0 0 0
298 1 8.044610620365646 3.891795424043252 14.598923034572344 0 0 0
301 1 8.739426521962056 4.097845396496478 12.47802588989535 0 0 0
299 1 10.113721676965548 4.128441321835628 12.1517701632904 0 0 0
270 1 10.237748573978987 2.5444595992793317 14.308802946697126 0 0 0
268 1 8.800333444578637 2.686242425095579 14.63363340745735 0 0 0
431 1 12.116482393131147 2.965470272475502 11.95391913562812 0 0 0
425 1 10.745365827018063 2.857306627344891 12.167036783058922 0 0 0
304 1 10.842111327923936 3.8155672433268926 14.14845032430717 0 0 0
429 1 12.808229524961215 4.181150329039696 11.914100210037212 0 0 0
427 1 14.148514057491703 4.180651479073192 12.185945370928778 0 0 0
396 1 12.90971735416194 2.6488096733824342 14.123646523478026 0 0 0
47 1 16.298987955391652 2.9932521862829553 12.373168811462305 -1 0 0
41 1 14.885963512185523 2.9473587738987366 12.126728540364489 -1 0 0
77 1 0.40137002737183636 6.625821868658811 12.69040604431406 0 0 0
75 1 1.8542536123423214 6.5613657970230665 12.754360992510065 0 0 0
207 1 3.9052362328990466 5.419976427728663 12.946480863990189 0 0 0
201 1 2.5420466918004045 5.4122254101953535 12.857333927806337 0 0 0
203 1 5.937305027188791 6.602560158135009 12.898791795511407 0 0 0
205 1 4.6343023836356805 6.652851614183858 12.852813313888934 0 0 0
174 1 6.036146983019133 5.108905385181344 14.9576160759696 0 0 0
329 1 6.657715029656611 5.344426419088451 12.79058600961077 0 0 0
335 1 8.027592968096442 5.375286313094456 12.534247051490464 0 0 0
208 1 6.637672079417763 6.368402829144442 15.009118061258249 0 0 0
330 1 7.8989011796899735 6.3989405293536725 14.482001649496983 0 0 0
333 1 8.777236692559521 6.575905940464313 12.613412984547667 0 0 0
331 1 10.157931339655207 6.679172544850571 12.34773180566151 0 0 0
302 1 10.095173553030795 5.10515230898017 14.255340207854058 0 0 0
300 1 8.750787744539915 5.099663442120784 14.664737626206946 0 0 0
457 1 10.915960050322777 5.362687133457438 12.306087246433286 0 0 0
463 1 12.160156984575085 5.398184944805243 11.828142409192765 0 0 0
336 1 10.841544706040263 6.315669217905687 14.279312252630184 0 0 0
461 1 12.918028632617707 6.649648234182659 11.93135999960774 0 0 0
459 1 14.225831189356287 6.604736883584287 12.188609732487903 0 0 0
79 1 16.31075209359193 5.34401871135757 12.753756000073405 -1 0 0
73 1 14.951630483129978 5.3944422761583795 12.341016880494287 -1 0 0
107 1 1.7983372872955508 9.01084197449682 12.797999390602348 0 0 0
109 1 0.3149224869742513 9.065343409098967 12.647273969499704 0 0 0
233 1 2.5238613585283827 7.773685271195858 12.889465262314186 0 0 0
239 1 3.8837649959529923 7.813642730530349 12.943336559619866 0 0 0
235 1 5.930178785048755 9.039131596859123 12.851873388888535 0 0 0
237 1 4.564840827416995 9.077333720324448 12.830280518718258 0 0 0
206 1 5.927563049543862 7.542061140669194 14.911361332955666 0 0 0
361 1 6.612644641584857 7.8090021774792255 12.731250104677715 0 0 0
367 1 7.934168992549568 7.795318030316045 12.438224301587905 0 0 0
362 1 8.011429836850429 8.799389096873758 14.772933816379046 0 0 0
240 1 6.6296524794901135 8.790477231725369 14.867687656143026 0 0 0
363 1 10.019591547674644 8.982487862305192 12.373819566228725 0 0 0
365 1 8.65443497010042 8.96141896726311 12.589376059352478 0 0 0
334 1 10.114794646876662 7.551323792214522 14.269533539213231 0 0 0
332 1 8.651389068700864 7.603345250152167 14.569814686345282 0 0 0
495 1 12.186237013273514 7.8770041654154435 11.9890657349236 0 0 0
489 1 10.871027789980822 7.839303833107361 12.283861721705641 0 0 0
368 1 10.813537611281888 8.732570793530735 14.508379409759474 0 0 0
491 1 14.207242589647235 9.040739736231961 12.198035686579392 0 0 0
493 1 12.865034684378562 9.091045705464591 12.043652313233945 0 0 0
111 1 16.39189101241564 7.823229389994525 12.469339658680008 -1 0 0
105 1 14.94118203764149 7.735508313885951 12.227950497403313 -1 0 0
110 1 1.7526003094069833 0.2097056139876036 15.014495913540689 0 1 0
108 1 0.44694148127581274 0.18423410984344551 14.706506935010012 0 1 0
138 1 3.944047459094875 1.458590405208326 14.91043932789681 0 0 0
16 1 2.5952018893575115 1.4792797470696268 15.173306410001636 0 0 0
115 1 3.971310942186854 2.3533148403138227 17.01322913630713 0 1 0
236 1 4.557628396561807 0.2949976053594594 14.999464670571815 0 1 0
247 1 5.982644656277586 1.047292441136189 16.849380424965638 0 1 0
241 1 4.572438243340369 1.0904718834400196 16.945057149853596 0 1 0
243 1 8.136970563533314 2.308087418103644 16.77070744346682 0 1 0
245 1 6.691985075454551 2.2533418008826445 16.797948550569988 0 1 0
369 1 8.874575699189988 1.1260528225905637 16.80512615400878 0 1 0
375 1 10.313038548126261 1.0854692997587114 16.411818719610075 0 1 0
373 1 10.972068415947296 2.3155424285502932 16.29326172072648 0 1 0
371 1 12.339426761153641 2.368371605117855 16.177141794861672 0 1 0
494 1 14.31473064131894 0.10741183493797044 14.20065237648275 0 1 0
497 1 12.974915384355256 1.139929161786408 16.101985236014173 0 1 0
503 1 14.392157429267737 1.1732574842820696 16.386084681883744 0 1 0
400 1 15.098446950151816 1.3285113942726785 14.155816715552554 0 0 0
10 1 16.3875391577819 1.3881414682537607 14.679426454316765 -1 0 0
501 1 15.174323723435508 2.4097595073099445 16.270554665896533 0 1 0
14 1 1.8323241228983098 2.6546902727761656 15.124039577745798 0 0 0
12 1 0.47727792060394475 2.5751602489392487 14.591709261439153 0 0 0
48 1 2.502394665817544 3.8703855364880058 14.916451832039975 0 0 0
19 1 3.963371323576606 4.814858446770893 17.068469834960453 0 0 0
142 1 6.068216345480428 2.683595188665109 14.882351322038819 0 0 0
140 1 4.638837780256617 2.7254617085999007 14.945293205381791 0 0 0
151 1 5.937420582168662 3.576317765179548 16.983716907993056 0 0 0
145 1 4.674935406238479 3.5769958124884393 17.124879701819776 0 0 0
176 1 6.815825676580351 3.871669588410427 14.830618017016953 0 0 0
147 1 8.095018309483644 4.805353958110105 16.713591373034657 0 0 0
149 1 6.678039188898703 4.76949375357063 16.942662875053383 0 0 0
273 1 8.73017238282553 3.5475515423587587 16.64959709112952 0 0 0
279 1 10.175248836656365 3.516931550881014 16.329012970264166 0 0 0
426 1 12.05940392186164 3.8044360892563773 13.92861145050043 0 0 0
277 1 10.782767651761345 4.7652455230372635 16.17812200973715 0 0 0
275 1 12.209256814134644 4.8274354609074726 16.20830888673719 0 0 0
398 1 14.364868744800763 2.6008303107298243 14.189877039342967 0 0 0
401 1 13.125468708391235 3.5340005989453673 16.198784889648646 0 0 0
432 1 14.99821880236377 3.922296005115813 14.283166709298417 0 0 0
42 1 16.383246234666224 3.922485289504076 14.58094366433906 -1 0 0
46 1 1.7920868028439294 5.133650165120606 14.796403023185867 0 0 0
44 1 0.3437466955296682 5.157783660953693 14.706534282076095 0 0 0
202 1 3.851120954423071 6.359590871447593 14.865893340178863 0 0 0
80 1 2.554895988694459 6.287251668985808 14.763247698335704 0 0 0
51 1 4.011208862525102 7.212606019636902 16.896405007243548 0 0 0
172 1 4.544168491870164 5.176489209560962 14.951604594483152 0 0 0
183 1 6.006822517314404 5.999253052682719 17.080524798572448 0 0 0
177 1 4.628474598523802 5.980657160478777 16.95808930935791 0 0 0
179 1 8.24244063390803 7.273852662702587 16.79575391301841 0 0 0
181 1 6.852722853065159 7.251834711310486 16.954950852759275 0 0 0
305 1 8.84796000344668 6.008117662657369 16.678196821450832 0 0 0
311 1 10.1159761471676 6.008343051286096 16.218451609199537 0 0 0
458 1 12.265206194129403 6.2529517915199335 13.9774350386413 0 0 0
309 1 10.841839500185069 7.247057513017561 16.216528312206385 0 0 0
307 1 12.215155174871228 7.246328477491009 16.044914700345856 0 0 0
428 1 12.86458438708414 5.011754758866263 14.025555145442862 0 0 0
430 1 14.296480614309106 5.0154447751854665 14.386323929427533 0 0 0
433 1 12.922265102690028 6.092283884747041 16.03332217789562 0 0 0
439 1 14.290594311096449 6.017082851552639 16.247367446313923 0 0 0
464 1 15.02371584698989 6.274327805204365 14.297821984498551 0 0 0
74 1 16.416418172508457 6.274353977157447 14.683767637643587 -1 0 0
78 1 1.872653175662368 7.4525456484636186 14.869148890360119 0 0 0
76 1 0.3666601028484353 7.417071760704423 14.711471060077649 0 0 0
234 1 3.909595701905195 8.891840054371656 15.032022310524171 0 0 0
112 1 2.563419437804205 8.776658292454524 14.894681391489922 0 0 0
83 1 3.950733515980767 9.605453665667776 17.04452265119987 0 0 0
204 1 4.563837340941113 7.551185116501859 14.892759740624225 0 0 0
215 1 6.075622179968507 8.383649353829686 16.864669932927484 0 0 0
209 1 4.663301722098718 8.441537847636011 16.922951076192824 0 0 0
211 1 8.175080574907355 9.569895253279816 16.816602488499626 0 0 0
213 1 6.74716389724888 9.612523792932544 16.832648280323795 0 0 0
337 1 8.821573890021641 8.494173374631698 16.805766163983762 0 0 0
343 1 10.188852343980006 8.502524260207553 16.491882910022735 0 0 0
490 1 12.21252092766101 8.721541106656666 14.096353725445413 0 0 0
339 1 12.32335873918155 9.741337049707328 16.220851125898676 0 0 0
341 1 10.97450766142873 9.667590465596488 16.414387999960883 0 0 0
460 1 12.974776666431298 7.518638556098617 14.008454474266582 0 0 0
462 1 14.351372332913733 7.510778001173242 14.319364210774303 0 0 0
465 1 12.96284637713493 8.496717136996844 16.019381226503214 0 0 0
496 1 14.962215155521134 8.690524950159034 14.262203258569368 0 0 0
106 1 16.369563346642032 8.670278209572565 14.69809592311626 -1 0 0
113 1 0.4553764665814081 1.1982429875808343 16.783234863881766 0 1 0
119 1 1.8421028952915732 1.1359084977067568 17.136454974696974 0 1 0
117 1 2.5682947379643015 2.3635069672981928 17.073766161237867 0 1 0
118 1 3.993614064922775 0.7639144419556879 18.998270220850106 0 1 0
24 1 4.693812956337784 2.0382990839207156 19.06106454775654 0 0 0
146 1 6.139271838833186 2.011976669701946 18.946223999225882 0 0 0
244 1 6.794386584456392 0.7684239785973427 18.749641408608333 0 1 0
246 1 8.230927370476623 0.7930751240187043 18.881608872042616 0 1 0
152 1 9.007114086284286 2.0426283801034146 18.721212851723838 0 0 0
274 1 10.389383488199828 2.037112970057494 18.46413698143278 0 0 0
374 1 12.447039234027242 0.797261512208613 18.20394948074306 0 1 0
372 1 11.04354886062833 0.768194414337467 18.45799216107105 0 1 0
280 1 13.128347728020136 2.0282997952358848 18.096228047544248 0 0 0
402 1 14.626442356493511 2.0032485332885854 18.332990145435563 0 0 0
499 1 16.571847678511077 2.4807939525365277 16.636805979083135 0 1 0
500 1 15.237996540817036 0.7620420279954668 18.40660427932815 0 1 0
23 1 1.9249740574642105 3.6208126681530923 16.989347032105087 0 0 0
17 1 0.6340706378022926 3.638155615390519 16.637163323948286 0 0 0
440 1 0.6069288837237906 4.4509085993360635 18.7865925329991 1 0 0
50 1 1.9459863686171772 4.409150901223869 19.051402828958302 0 0 0
21 1 2.5999532539623655 4.826038200212413 17.026192383592026 0 0 0
20 1 2.6711259967857903 3.1727376948371755 18.991258278551328 0 0 0
22 1 3.9980136576265477 3.1683547493042132 19.133301437623686 0 0 0
178 1 6.167089539505323 4.395249920506881 18.969865196564918 0 0 0
56 1 4.688775934256229 4.418311612193033 19.16890869820301 0 0 0
148 1 6.852368814975642 3.169030920550112 19.023080924622626 0 0 0
150 1 8.254543522684115 3.15938621454675 18.74351256460641 0 0 0
184 1 8.882110916644255 4.42123333583083 18.643680993736893 0 0 0
306 1 10.415524193170782 4.363044459817612 18.29680004477565 0 0 0
276 1 11.023740961767539 3.1807662947672033 18.26593201317578 0 0 0
278 1 12.381698943095023 3.1757664121623947 18.162479224598552 0 0 0
407 1 14.48854083382766 3.6066729300652933 16.313279928629676 0 0 0
434 1 14.520021316232826 4.4955652383095055 18.324034423298308 0 0 0
312 1 13.158642427198563 4.448820207811702 18.063982127623603 0 0 0
403 1 16.50192802881199 4.856051288407229 16.747579396696878 0 0 0
405 1 15.14096256909448 4.791089153470507 16.308103572552845 0 0 0
404 1 15.25226783286919 3.2983251517568397 18.2304834718874 0 0 0
406 1 16.575636688758316 3.25934053455868 18.578410985786185 0 0 0
49 1 0.3659039348008385 6.093282551490563 16.686968671374387 0 0 0
55 1 1.7964537301740617 6.035409024977452 16.77310447788043 0 0 0
472 1 0.6101417127393931 7.0289589854298775 18.696240252534892 1 0 0
82 1 1.9586958375703976 6.8648896613581645 18.99481457692813 0 0 0
53 1 2.5252965069346667 7.197646945686576 16.963370434283124 0 0 0
54 1 4.029479040222015 5.65976644464697 19.03760155720808 0 0 0
52 1 2.6289871455971277 5.634952456090452 19.00835014810866 0 0 0
88 1 4.772208575310078 6.881127724386893 18.87590178723734 0 0 0
210 1 6.216009795996308 6.8637074141406424 19.014056451634897 0 0 0
180 1 6.858699422916963 5.577974357988714 19.04199921997166 0 0 0
182 1 8.19867458874353 5.579477762155365 18.840099907286522 0 0 0
338 1 10.351479423218729 6.7939789026273045 18.314176344558575 0 0 0
216 1 9.042103187362155 6.800542255657253 18.729351612301333 0 0 0
308 1 11.066226885012911 5.590930735086523 18.2330932008391 0 0 0
310 1 12.51262160095353 5.703427721444154 18.147030219142344 0 0 0
466 1 14.60374816510482 6.855039515160849 18.472681032338418 0 0 0
344 1 13.249869289647906 6.8997442280960986 18.07388663479717 0 0 0
435 1 16.43714035677268 7.299450625341631 16.723953339916644 0 0 0
437 1 15.042696425282575 7.265427584924482 16.310186475311248 0 0 0
438 1 16.555335407079056 5.743402498818839 18.68335697952228 0 0 0
436 1 15.249039896372494 5.707965702931205 18.339378033966533 0 0 0
81 1 0.4456160293672325 8.488469804614477 16.612748289991803 0 0 0
87 1 1.9133646594172242 8.454796283520146 16.89490278306273 0 0 0
504 1 0.5665824058167679 9.427987832612093 18.758565737829944 1 0 0
114 1 1.8866278518152806 9.253848437390632 19.13903281373478 0 0 0
85 1 2.6012157494900863 9.58395392913333 17.063677510051633 0 0 0
84 1 2.6375777206634643 8.041017484444284 18.92764001203475 0 0 0
86 1 4.117854191994866 8.029787911164004 18.955994682294545 0 0 0
242 1 6.131619417130948 9.164489656285753 18.81675333618024 0 0 0
120 1 4.743036257380097 9.28142257681383 19.085296609919368 0 0 0
212 1 6.869029232427006 8.058390881911446 18.929049658477755 0 0 0
214 1 8.324608842403501 8.101790829074215 18.82412629335719 0 0 0
248 1 9.016270337623448 9.303074264430157 18.828213510575026 0 0 0
370 1 10.310297609286456 9.391005561604414 18.444319405793863 0 0 0
340 1 11.02116833377116 8.031544438293224 18.483761215165828 0 0 0
342 1 12.445979819801494 8.123443260288122 18.086369196719353 0 0 0
471 1 14.30835839532793 8.466188602280853 16.278272949132216 0 0 0
376 1 13.176260971914479 9.300807199430887 18.21629619360607 0 0 0
498 1 14.520020187433092 9.366522999566246 18.365664641886163 0 0 0
467 1 16.41054354236008 9.707986908313204 16.712230711045436 0 0 0
469 1 14.988648369504086 9.641904402075653 16.29509612862627 0 0 0
468 1 15.270730431600649 8.189190859523999 18.42682952636741 0 0 0
470 1 16.591701823273176 8.244109746307483 18.663597574947985 0 0 0
18 1 1.9200225034592568 1.954359746502907 19.085915277302924 0 0 0
408 1 0.536314853727892 2.04472703763157 18.7382905890331 1 0 0
63 1 1.9371546425096386 0.5282603873447371 21.141545253416183 0 0 0
57 1 0.5931623357309214 0.5635965459800801 20.847532199341643 0 0 0
116 1 2.6520388523552203 0.7521272613907084 19.1555201612461 0 1 0
61 1 2.6406931686634554 1.82393645610878 21.12708178016758 0 0 0
59 1 4.041042116805784 1.8097254906318145 21.213537036560954 0 0 0
191 1 6.146796781949405 0.5252506070990767 20.84756271377699 0 0 0
185 1 4.783687652331431 0.6284792059755953 21.010101321971163 0 0 0
189 1 6.90770598126583 1.7316158377836246 21.04961985669987 0 0 0
187 1 8.263737763993458 1.7102329009590174 20.821426826111875 0 0 0
313 1 9.017232279052566 0.44027728313138087 20.802893680514114 0 0 0
319 1 10.380669571614886 0.437774921934969 20.58030536714182 0 0 0
317 1 10.97711528455391 1.6419968327141168 20.421710761034557 0 0 0
315 1 12.37410170238322 1.692112488468781 20.11382982129389 0 0 0
441 1 13.189884644078726 0.44864097224742194 20.254655723721157 0 0 0
447 1 14.553104575764173 0.51390140434595 20.43113847986353 0 0 0
502 1 16.558806622194545 0.8154529267085445 18.785781414610803 0 1 0
443 1 16.617550343024547 1.7752741536162198 20.82220470241915 0 0 0
445 1 15.282580662057375 1.7841689138640102 20.333071720268055 0 0 0
89 1 0.6169678474905137 2.9808138348669657 20.872156166040263 0 0 0
95 1 1.9064318580621802 3.00500101541444 20.979090284449928 0 0 0
91 1 4.083550721281096 4.210287549241063 21.182227618356322 0 0 0
93 1 2.74551183186049 4.209235310536892 21.0852095251821 0 0 0
223 1 6.100201501439107 2.913864657299188 20.99870704831961 0 0 0
217 1 4.781763760081486 2.9832516995967135 21.22230619165457 0 0 0
221 1 6.790411163191559 4.203437018841169 20.95868667373683 0 0 0
219 1 8.180188862546721 4.188584121600465 20.67549514266681 0 0 0
345 1 8.961876606516155 2.89472963908848 20.785794188331465 0 0 0
351 1 10.276677763413709 2.893594867090937 20.415516733022294 0 0 0
347 1 12.385800203691343 4.150745967364307 20.146828409228743 0 0 0
349 1 11.038256814493202 4.1296490148642215 20.442288429209007 0 0 0
473 1 13.16072837128743 2.917906745430196 20.148039571176326 0 0 0
479 1 14.590112228131034 3.0007748124473035 20.200962105529754 0 0 0
475 1 16.531509985313654 4.230765790872586 20.900697514767458 0 0 0
477 1 15.301201780979865 4.207678943496616 20.308526688328033 0 0 0
127 1 2.0218454244006505 5.3898774512220955 21.053259793861184 0 0 0
121 1 0.6108814182922457 5.385493585987407 20.747166879313433 0 0 0
125 1 2.6619900199348 6.548107998291585 21.0178741655536 0 0 0
123 1 4.055091129204282 6.646937687783576 21.015754184554545 0 0 0
249 1 4.721640047332634 5.438983122233522 21.054465319415293 0 0 0
255 1 6.081722696910781 5.425401484920924 21.129348584170184 0 0 0
253 1 6.81387447609819 6.662552924701691 20.992833403097436 0 0 0
251 1 8.237751813047176 6.671509822478484 20.993054661085434 0 0 0
377 1 8.956537165833227 5.410939644816022 20.909510515444527 0 0 0
383 1 10.35479479996788 5.38538071432788 20.468750336455546 0 0 0
379 1 12.408237553077878 6.54056471596778 20.172481126769803 0 0 0
381 1 11.042034452171555 6.598955414281523 20.334336965120748 0 0 0
511 1 14.597205860863276 5.300773606987171 20.31751591307703 0 0 0
505 1 13.187222240865687 5.373828337978514 20.120031695712782 0 0 0
507 1 16.606396447943737 6.583883306829591 20.658230162032503 0 0 0
509 1 15.18568745929981 6.668993717393471 20.46086840216369 0 0 0
25 1 0.6310773291475207 7.859938702693232 20.73828207049783 0 -1 0
31 1 1.9473528997860214 7.815390085724643 20.904040326298077 0 -1 0
29 1 2.641512709496747 9.060093358146531 21.117223763596087 0 -1 0
27 1 4.091780953444449 9.149240244853011 21.09223787502016 0 -1 0
159 1 6.182398677496912 7.876763507737668 20.953258712987907 0 -1 0
153 1 4.792895552087055 7.877584977987907 20.99077082790965 0 -1 0
157 1 6.8587884605771885 9.052414474082234 20.906835855163912 0 -1 0
155 1 8.27714911448395 9.060494101809915 20.908217921090944 0 -1 0
281 1 8.913220113547593 7.831850101907178 20.889952443894437 0 -1 0
287 1 10.307918042427493 7.865425676846595 20.499696040912404 0 -1 0
283 1 12.438908312333893 8.988395575423949 20.103851568174637 0 -1 0
285 1 10.997696142912343 9.026991761040962 20.414262034679123 0 -1 0
415 1 14.49275881385636 7.860552370772101 20.422407071257172 0 -1 0
409 1 13.102418007167142 7.822245223682963 20.22374320839115 0 -1 0
411 1 16.577561457328706 9.100366239495042 20.746522049428272 0 -1 0
413 1 15.177588400486265 9.12892505758325 20.398481169841816 0 -1 0
60 1 0.6213146136588888 1.4938842112122293 22.99134446148419 0 0 0
62 1 2.0172269683184867 1.4608135684647698 23.239063705306833 0 0 0
186 1 4.202944698377349 0.1356638469548465 23.18496933311605 0 0 0
64 1 2.6589589334941715 0.2040291071517464 23.175091448884025 0 0 0
188 1 4.884544529456327 1.3204411898022392 23.17286510165849 0 0 0
190 1 6.1889341110422125 1.4547570164247714 23.14851084475616 0 0 0
314 1 8.295060625908942 0.1502213971565612 22.883725407909523 0 0 0
192 1 6.976034427233659 0.23516332192161016 22.967890446361583 0 0 0
316 1 8.93719509333635 1.4016027008771692 22.808154431269283 0 0 0
318 1 10.353284152160072 1.3824151941465705 22.466093807454023 0 0 0
320 1 11.148331949508895 0.16419787227810106 22.545931302142343 0 0 0
442 1 12.512771828922018 0.21732614979089127 22.35587201967602 0 0 0
444 1 13.156564666340753 1.4471725666503745 22.299141575349367 0 0 0
446 1 14.490587886974469 1.4571656522996805 22.471570749639373 0 0 0
448 1 15.219218812560195 0.2623534287400534 22.519959350701047 0 0 0
58 1 16.57987239634864 0.20339328933886588 22.843430525229685 -1 0 0
92 1 0.6208801364206258 3.9194375939457706 22.84173991317393 0 0 0
94 1 2.0681170482670357 3.9012699074479955 23.034010201432245 0 0 0
96 1 2.724670873439675 2.646291941498059 23.08905938298892 0 0 0
218 1 4.120456917826089 2.624515302922437 23.17514154919858 0 0 0
220 1 4.72024608121329 3.8805929944614967 23.175809996902295 0 0 0
222 1 6.128343914302341 3.8746635156442117 23.00530377689938 0 0 0
224 1 6.855352357404976 2.6413890631369563 22.983943896781938 0 0 0
346 1 8.174450820891707 2.6214302917602157 22.726057098307788 0 0 0
348 1 8.855925173995175 3.8243249593911446 22.681223137001876 0 0 0
350 1 10.315053397842204 3.7539173414876297 22.429268977599275 0 0 0
352 1 10.981380578585707 2.6202616885705803 22.326961933607393 0 0 0
474 1 12.458760198054314 2.645849218766936 22.260177647680685 0 0 0
476 1 13.167478228141448 3.7698181771313215 22.081337971146866 0 0 0
478 1 14.600134605562133 3.805008592393799 22.54813936628772 0 0 0
480 1 15.30623011565322 2.644556495806712 22.293668337511193 0 0 0
90 1 16.575968263469143 2.6802160340002654 22.902258109187855 -1 0 0
124 1 0.6345729364707499 6.247723524240082 22.65003288279909 0 0 0
126 1 2.000029796214531 6.307555616843758 23.015872207865936 0 0 0
250 1 4.080883115466949 5.170931964951591 23.096106694877854 0 0 0
128 1 2.7597406429096334 5.102732335321066 22.996520326855148 0 0 0
252 1 4.819969874887861 6.3624290932656615 22.986378412928453 0 0 0
254 1 6.29582098454279 6.291169379076414 23.13344854010198 0 0 0
378 1 8.27987832579431 4.934372252370443 22.863861202683196 0 0 0
256 1 6.984974406722613 4.964828512517888 23.039396014319884 0 0 0
380 1 9.053463684654606 6.141213216836317 22.884999794916077 0 0 0
382 1 10.34588996309348 6.205257448669602 22.596957979241218 0 0 0
384 1 11.066101820814348 4.9409263471519465 22.420214551141555 0 0 0
506 1 12.47331839510134 4.992433619549234 22.213992266947905 0 0 0
508 1 13.193607319975062 6.1946448930516524 22.198010979423604 0 0 0
510 1 14.50189137265462 6.2656001439490066 22.488910021094387 0 0 0
122 1 16.631867110919387 5.0642965404382245 22.82674818097623 -1 0 0
512 1 15.287399785077445 5.074361198036089 22.562974565425364 0 0 0
28 1 0.5745785763151668 8.715593711673808 22.69456387217644 0 -1 0
30 1 1.9622319919145463 8.74086662198149 23.108981166321207 0 -1 0
154 1 4.1992382429793365 7.518902825461351 22.991072731180907 0 -1 0
32 1 2.7832672918233605 7.495639430855161 23.060693793193497 0 -1 0
156 1 4.947669717851724 8.724588108054924 23.0569830753088 0 -1 0
158 1 6.262732745115694 8.694612529413428 22.916852689248728 0 -1 0
160 1 6.971350672565016 7.464332792854503 23.003569166688358 0 -1 0
282 1 8.313361425046105 7.367578394296583 22.97967630787152 0 -1 0
284 1 9.109984928095551 8.672467186332264 22.810875755105474 0 -1 0
286 1 10.4264107175382 8.605666425048145 22.483965908175115 0 -1 0
410 1 12.466591206943818 7.497995919679511 22.273472112445468 0 -1 0
288 1 11.092114403157145 7.386420777012495 22.386255089795142 0 -1 0
412 1 13.185421065527166 8.792556032611127 22.180995593608465 0 -1 0
414 1 14.500370230613266 8.770527636391002 22.5886966010942 0 -1 0
416 1 15.228999124533381 7.6311019856593765 22.419258147071464 0 -1 0
26 1 16.566694968937924 7.522785535125578 22.722894557414726 -1 -1 0

Velocities

65 15.445082861772 0.5586440679898191 3.805770070866392
71 2.9471770365954923 -3.393958850638241 -0.8896509993669696
37 -2.1860606610312847 11.104836102119991 -5.246697179572976
35 7.209297831799033 -20.536611893775788 28.440108933512864
193 3.739343742004182 22.601356468765708 3.179363287775459
199 7.189158074403002 4.108520640964541 -15.915292625804646
165 -12.731871258274829 2.4076415805753317 -1.859210633192463
163 24.647156835718295 8.775958905266764 14.523828000514332
327 -17.236250674339125 11.60424022773485 -18.694991879486384
321 32.22557058330122 -30.19536876544603 -12.047428634968687
293 7.9032555494991 -8.913935091866051 -3.2218872476063294
291 -7.35747461326559 -7.463434511970879 -3.0180168866033057
449 -9.587566529382196 -4.571284616227334 -20.738122867882833
455 5.43377729202249 -8.889756866946858 -4.264892310361385
421 0.5251119374027955 -0.4932930516230249 -2.7294800071629868
419 7.10276609849904 13.803581803192754 -32.157867833006335
103 4.482959772340127 1.1091523401524237 3.8929128148112873
97 -11.915224655588903 -11.820280461340737 -4.533187767867083
69 -5.401307168625517 1.7310231748374012 9.461174438161713
67 -13.62455161243621 -4.16465135134312 24.256183957171846
225 2.2898235233227924 7.321203900640604 -2.6425523571713807
231 10.479737313904382 7.728234619787745 6.067738517052997
197 -12.15358863520282 -4.036703220641548 -0.3235791803081536
195 10.997422637874857 4.504210966670108 23.103274422364656
353 4.103649491882228 -9.392042019243192 -1.1451086480159547
359 1.6541469548726728 -1.1981887196559504 2.448186116913724
325 20.87897167636211 -2.0285577624406286 -16.90021924524937
323 -1.0295503733122995 -1.975812163705547 12.418732597136431
481 2.075837703362361 -2.2557278837627948 13.682754642424117
487 21.575461199121303 17.95662679721985 -1.4844741972692486
453 7.733361302194234 2.1322771593338015 -0.3307279878704364
451 -1.849529397408977 9.811709571893543 -2.0880181940292006
7 9.529705049817148 -4.559934126112783 1.248244984139672
1 -27.776454666072436 16.412657971092077 -3.615920559757563
101 -9.027189369119826 19.11955474875946 3.243369629262558
99 2.8327202786374515 2.0455001676186586 -14.148980755650985
129 -23.71122794749823 8.353991767530324 -0.14176980939390676
135 -1.2930749731556475 14.876161343727354 -32.52134896344583
229 8.6280780285532 7.209852498506048 -9.890676997281114
227 11.382518652892108 -3.682439068851703 -7.082650054843205
257 -3.158607811469395 9.852061322240193 22.99517054561365
263 11.052943225863764 -0.7618533162072858 -12.419885211103692
357 18.644232805429542 -7.3678358687449865 -28.375691099408396
355 -4.602691325792939 -1.305624070545785 9.899466313230601
385 2.1782986997254223 -8.702930106905784 -20.677581092461526
391 22.204733346555784 -8.367917251522202 13.450371757221541
485 3.7487148210518297 28.007808802778918 -8.360957998856978
483 -20.162614817421463 -5.067846362315467 17.402184272611485
33 5.300730062111517 1.2340143503253667 12.412852543206398
39 14.57226760943063 -1.914191188100673 -0.7590306122291708
5 17.607065207688162 11.206041015755764 4.7421818624897885
3 -11.333249352675324 -9.418196218122985 5.822821405457808
161 -20.135443342473987 21.238203684425752 -1.1193400099456674
167 -25.990071964467585 4.561614579762405 -8.555637102391707
133 -0.6938766417451221 -17.20589644401672 6.91671411181588
131 -2.4720470093657756 11.438057353094695 2.3923955381508737
295 -14.563398931966839 -6.854320358164624 -12.978218133697373
289 14.329738725835874 -2.7094203572581956 10.604476287526454
261 -0.6399783117310194 -2.7676455850749297 18.813791950999775
259 0.9233314321045993 -16.947712448833016 -8.847462979384122
417 5.572545941050074 -1.754884376483257 0.46930494762999436
423 9.528194128847526 -27.601450532491636 -2.3391499087501537
389 0.33746208299993585 -2.0963436331795964 -18.537987822832655
387 25.309454590973907 -1.1152094907854941 -1.4897184479599785
4 -3.1619114535406463 -1.6370894374892897 6.996494441621235
6 -3.3561559438488167 11.931797942540335 -18.439346625927147
162 7.746494352386041 11.35915082371145 -22.230512734988466
40 18.50318646204014 -0.3940908735890797 -9.416796435665901
134 28.28274940055249 -17.9952686979178 12.170198835075293
132 -3.426861818414186 6.932386458881764 10.86247830975298
168 1.4818432486152464 -4.4153451485121336 -7.046367055711213
290 -23.632975043025006 -8.200443577999193 -12.324257227220023
260 -1.1192836504150856 -18.553378933289803 -0.5644350514461239
262 17.115953510702077 -6.014550491327614 -9.693424270202541
296 11.393897564878834 24.255373418206386 2.0409821243192874
418 -9.143860710809898 5.654539943219538 -12.21932470482864
390 -3.367860689475227 -10.11739255909534 -6.628153041282504
388 -11.578723794108829 10.847469420279152 -9.672079877155975
34 13.228192526191242 1.4109315202585775 5.898283941035512
424 1.4281611246608927 -8.044900191080433 19.26733041897051
36 18.709599799819042 -6.8597491675205715 -5.236501403244381
38 15.277833699270408 -11.779555541236043 -13.218784573503678
72 7.185942366603637 0.5380914713716818 -18.731686002566374
194 4.64571681620362 -4.75725165454874 2.2335280954834156
164 -21.06105054268961 19.54868607045056 0.8291185416350674
166 -24.415663391635704 -11.64469811199676 -15.776592578375872
200 -11.591230234502962 -14.100113780067677 -5.274744183813899
322 5.8231074984705575 7.1494163543055365 -15.69997303465619
292 -0.5770644292691751 10.345459032969496 -8.816788193235901
294 7.914110611199808 -0.9255007124440037 21.357205132898752
328 20.716397354507777 -16.06567525720205 -5.204854972971662
450 -5.093755114586775 7.634400646071727 -4.601404777080477
422 10.92863286881659 9.872437248229906 23.539724733966548
420 5.512947059459995 -4.970448338469148 18.79461786887934
456 -6.99282451946226 3.698710364289999 -12.236452195461764
66 -6.785007050577394 2.690688046552905 -1.1850469105650325
70 3.3568534135624795 -4.513138311113659 -3.1804779581852243
68 12.436477222828632 -8.846851509904758 -5.2835200792723125
104 -29.484536157830313 -10.679340544590886 5.554990578638601
226 -10.99130749045989 -11.166368160333088 -11.01097329127684
196 13.229144334219031 4.903466262094161 6.154175197174045
198 -13.345246986138976 -10.943394716725981 20.878858359848994
232 13.317814806342122 -6.847984099504613 -13.716852359759049
354 -0.33560077824305706 -3.4846865130426234 -16.1547210615403
324 -0.21393384175251226 -5.5207415814362655 18.97631129548037
326 -11.104884980750876 8.808766499029524 6.179129393239743
360 -26.234081193988008 12.285378843616238 18.653689281772042
482 9.552643205673416 15.096923647437295 10.611470466534916
454 -6.7671828532950595 -12.319311360926282 -1.749642628685386
452 8.500530370642013 5.638556306643133 11.994787384493542
98 -2.7579464653776893 2.531177621077757 -8.897670497463338
488 -0.32293632152153245 -5.861914424557028 21.37674605635765
102 0.9585927186007919 3.8987355696811603 9.774516945144974
100 25.111448688610537 29.89218861780625 4.99777846189466
8 -10.18368899115082 -14.8781931910543 -3.575450429474234
130 -4.410746000580488 5.663432643859867 -19.9922671217188
228 -20.208281414892866 -2.3145662068906447 13.455671852428607
230 14.388996724963201 14.159820249279475 9.390763567754234
136 -32.12906666897072 -2.9514397745400274 -9.309764741325466
258 -4.342815480850805 -8.07654171067 15.031426987469276
358 -1.3203847748038424 14.217387093968247 8.040020447924553
356 7.9686293401070785 -23.65097623274631 45.46441848665643
264 14.119978291528192 8.257017807428083 -6.169577573852711
386 1.1764412476207582 3.106576922878697 11.0736383846683
484 17.82508639411771 1.4832071221265615 23.437762637247424
486 -4.0718224009612 -24.586981508011878 -4.651390381843091
2 5.075431874802883 5.360395291094282 -11.372374980111584
392 -6.869905711305053 21.27414204532602 -9.284034627868994
11 0.543507927091839 5.210803579064973 25.878193735721315
13 14.306528401150633 1.5192178283124493 -3.532196037101823
143 -13.462104470545626 20.41743430729511 1.1445207639884312
137 8.960690514009254 -15.153483858918397 4.345747126124039
139 0.3166194278591644 14.926357098426921 -9.968800104836676
141 -2.1168268047872325 -9.124181669347996 -28.1168300635387
238 23.567713089800968 12.510928839324794 -23.42778788429877
271 -2.9825080829655013 -8.585804631314911 7.20853392667706
265 12.451382921687191 5.16838214299751 -8.376566758476105
266 7.780351596094913 -18.31915375337834 -19.76531490985679
144 -5.661513100054977 0.49542355961156903 -4.232729746993095
269 7.326436113044317 3.6299240444739573 28.2926430958985
267 -16.799157735506004 -21.337565451786876 -19.742631134727265
366 -1.12328401442053 17.1780850240359 10.271811736705082
364 -8.223377709318022 6.379271744576467 -4.323689680315062
399 -7.1277277463852124 -26.865895969651273 -5.731699961524879
393 10.405945122626644 -7.227249110043878 -3.2273611891934046
272 5.6904487152876975 -8.823723958275757 -11.536147105491821
394 -6.0599381221023965 -0.23269587192459046 9.348631731145897
395 -0.5578352105369384 8.914406447868858 7.415540514017592
397 2.3783471274366215 11.652772342922926 11.251964880325982
492 -6.666243605343627 0.3474596822826029 1.2760907268609705
15 11.51892973394562 15.403803807022946 10.97653599313827
9 -17.062090135131427 -13.104588465807238 -18.648006283527714
43 -12.654203403641898 11.426284986028275 1.3114389820919994
45 -8.787272872668616 -2.8366260818866635 -24.849012662588887
169 -11.470356479280817 0.9636173379191185 -7.245888251127936
175 0.7172218383224148 -15.820089838898852 -8.361149069807471
170 29.95936230678501 -4.349952956564275 -5.93378446839831
171 17.01532382914036 0.45745889346934665 -4.448635567738288
173 -8.848496033593559 -1.8562922304533838 18.08165956997533
303 12.273923243540812 8.636330070241375 -5.746817690132172
297 13.5331788796256 13.001569624590047 -3.06731283190372
298 -2.369522880086 12.481788436844424 -15.54089085325847
301 18.057642544947637 20.172638324178102 9.322767392249387
299 -22.304286343781254 16.19301901454602 -12.698237356635527
270 -14.611799974588816 -1.0338508057897564 -8.380976835198092
268 -2.3260863753625336 15.78129640621542 1.7389857702974436
431 -23.183051215464452 -1.6687318657048202 0.4700895575093125
425 6.737198001679473 15.129060269988193 3.3691250608927885
304 -15.93743395175664 -6.031008748309359 -2.1953621498534828
429 0.9431152873704309 -6.7412250406480405 -2.670648573032315
427 -4.305602577773166 7.461390185680029 -2.7772180309953125
396 2.8331381594725715 6.493305301761708 -0.05472033350244227
47 2.811186277587853 4.038410619276321 7.3478229599065426
41 3.8988418468951247 -5.484116931761856 6.499626360691272
77 1.385994526403781 -11.688770262682324 -13.960565031174044
75 -13.195899291216342 -19.988990654039853 -11.428060803482468
207 3.883053558667997 7.613769902857764 -10.655806820879272
201 19.371656449047094 -14.401155188121798 0.5519324952936621
203 15.7303151717717 -18.089644805479075 2.4290757347989587
205 -4.103725138347963 -0.7825424264145391 5.646433774352885
174 18.37936370318752 -16.517366822863305 -9.66676743349434
329 -12.643617141925752 2.8922452506339957 -7.744074111946326
335 -8.020889481873493 -7.302284515460875 -3.8257382722062205
208 10.569547649362933 22.382498458572194 -19.349567583216373
330 11.01513404623178 -9.760685523441504 8.89245022928046
333 8.864606002906745 -19.403129414227482 -0.25233971783441755
331 4.260268424273603 -7.017579935632192 21.256515537389053
302 10.22754093544236 14.561884991175605 20.60619612409864
300 10.65176585283389 0.25982039490090414 -0.229444545269857
457 9.406575533258046 -3.420458535162619 6.699773462208671
463 8.807020370168585 -13.859298360767642 0.5209131211598025
336 6.10496430714063 4.113273840348815 13.636514178039862
461 4.109879867504267 -7.4992700729251975 -6.980671234412919
459 3.2276547954710586 -10.094287321291759 14.85644345180746
79 -25.468456835311443 -20.308044306590812 2.1011953270035795
73 -30.039158763730576 3.6944914343422237 -15.40628076687945
107 6.132442623663344 -5.558634606275831 2.7053477537985944
109 -3.30813756286945 5.210722047457931 -10.102695739712198
233 -11.246823930176838 16.04483966029349 -21.1622283066463
239 14.385363057679367 2.958044240487982 18.183408735058027
235 2.4794516345960855 -0.7301700094969875 -3.321894906672915
237 -12.106914922904108 33.79676562248703 -7.634970653600616
206 4.984095842525341 5.944507135250309 -7.401823236794196
361 1.810388467533582 -2.424690038018843 -9.17325838161604
367 -5.869923919486632 9.510398187537264 -0.7550794760822088
362 7.2120294641238765 -18.528917320398897 3.423368472699674
240 8.781836670906559 5.329199926402218 -6.695124894715571
363 -20.230837794242962 12.653693928075784 -18.910793660577063
365 -2.5466176755112824 -5.475596488910184 -3.3337086027238687
334 -30.362751993061533 1.2849981326526312 2.9082159182949483
332 -13.107654772092012 0.827886444299676 7.3774587313396705
495 10.124132791551634 2.029386430031724 15.41623660893424
489 -6.048137102236974 -16.369875293321318 4.928928541844843
368 -7.697093653881503 -1.0459060211062152 14.032416388880407
491 30.57279887169993 10.516747162060213 15.167136290005049
493 17.554846286903466 -1.9596977731254603 -5.245031988679191
111 2.3131987500059776 16.388022190386437 7.816648756830712
105 22.230513759256063 -2.559403658221519 10.010419258660036
110 0.05334362751942372 -12.242876907570055 -1.9763780725235165
108 -12.4862816281085 -10.5414469890734 14.416331222575906
138 -17.106395767645797 4.143970775292509 2.4675128994190274
16 3.543290305346159 3.1976826648604417 3.124356818382312
115 6.05236357882559 3.702995477719292 -18.87097521636104
236 -1.5075720470578844 -8.539416023289112 1.431367768157299
247 12.688940681921748 24.080520371615656 -4.905841814817902
241 -17.62241613400818 4.224887771485509 7.170640495618095
243 -8.989560523406642 9.84262898610038 17.268294243795363
245 15.265033182897742 -25.699838406236665 -16.933567441968435
369 -9.192617010057466 0.9589430503588346 13.787312699264888
375 -2.2173710158867435 -4.556980581835991 0.8084366162114229
373 7.116931893675973 11.670130610639362 -3.247484962270905
371 -3.4174244936793503 -18.485738206325717 14.426320032492715
494 -0.8392227927610001 14.971836095096542 3.993033559307835
497 3.2671209895418176 16.340865719504187 -16.376066178111113
503 -8.981704900314686 -2.636594256637879 15.390203000657035
400 -7.267724257015381 -28.78315284606059 4.098715478180155
10 -19.42255347176884 2.5412636663690553 2.669064539618242
501 -6.327864699640679 -1.8168001829048621 -10.996023239801488
14 -17.10188875215754 -9.194022091588645 8.494488657328336
12 -32.581953852362595 -8.94635242797102 -2.5947216176042307
48 -4.4721558486979385 -10.501405289413032 -2.583093078495872
19 13.742666790471562 3.333405303595881 -11.932045723898442
142 6.699755355648584 -10.890267324139348 19.778917045387175
140 9.738539550192217 6.273911953356498 6.825564698852944
151 -3.1494403418322694 8.848681726442837 -14.970833539345811
145 -6.800457732310084 -15.827747946950067 -14.521592009216679
176 -19.96916525311758 -3.3263608688743638 -13.489088394912896
147 -4.626791162644779 11.232059901500364 -15.411696561608567
149 13.28074169135039 3.8493268951985016 0.9288724702951203
273 6.196469148868915 -16.984798133771907 8.759188806408806
279 2.3058334109001044 24.66957245624783 5.019825424418073
426 17.9812290718189 0.8942202628053463 4.18990391131708
277 -22.300228220853242 -30.365189865918516 1.4359309974975183
275 -8.67400241801465 -6.282386481209551 -24.32367734352815
398 -17.03496239410839 -12.394132990906948 18.17009256485341
401 15.727459157962215 -1.2917824913748652 -5.2016519495534155
432 4.413880443141212 -6.522581902287144 0.10359550160532083
42 -2.3461659195065465 0.6491385119777252 -0.888163217241611
46 2.612394357420148 -15.395202460620142 -17.47959626965337
44 4.127665125379856 24.81262145071999 -7.039204484938724
202 0.6004990577417855 11.633657052404349 3.1466823410816214
80 18.47887436507305 -5.0980861269350966 -5.514105210938434
51 9.264095122243237 -10.139861277927949 -1.8394016126615231
172 3.4522322510780095 -12.333344838669634 9.332261783934056
183 -26.964354033963378 16.84024268339216 -3.862381437739855
177 26.354517310813925 7.137377428254827 -1.9783518842101826
179 4.234360495789603 -13.134803537850148 10.89361406330439
181 -21.69444346153485 4.677533908284485 2.1989558939781397
305 2.261460016508189 5.966127591508609 10.756557425557345
311 4.040140041640314 0.6384329948926368 6.5066014016396805
458 -5.979153736263797 0.4831519642956083 -10.413777024049006
309 11.804053030258112 -9.028881642421386 8.954268925860125
307 4.534548657766788 -3.7827208540314343 -1.2898687736479981
428 0.12760256892179198 -2.9956802661366497 17.97622750797982
430 -2.7760470999300995 8.064351005420871 -14.301670343790652
433 -3.5563941631347658 23.727679623689387 -4.961001298616754
439 8.642879783909375 9.644851204919348 -8.346755792860515
464 -12.580965664269868 17.37030053118757 17.676894666983397
74 -11.013816777481882 -4.3625737227144885 8.310724600551758
78 13.314989961126722 -1.8758451832858265 1.417594137153915
76 -2.556671761097959 3.2483321046896902 12.08175352398035
234 -3.1587076148019637 -7.932870429830574 11.411911872741264
112 -1.751857908561398 0.7038451915803093 6.177233204134378
83 -0.016854143788055664 -19.704499392476027 15.965697683620956
204 -3.143114740016562 -0.7387172734597279 34.312628966506075
215 4.550938986550902 5.025941391617232 36.267601022365334
209 2.5034663128774612 13.98733856331848 -2.2339367337916203
211 -0.13713759812594126 -13.974445708846558 2.1927434556004783
213 6.195671730048323 11.617635136869296 0.5600450513433067
337 10.557576869233044 -10.190392661968213 -14.776472295464027
343 -3.8831478604900957 -3.87127036363679 -8.572913131985805
490 -2.250633815591947 -9.791127869541207 -7.643320792907037
339 -11.343902735278197 9.163471591025552 -19.85397528314029
341 1.8828648051963308 15.479746230190443 -5.825723902476394
460 8.817140546507439 2.1344180296755204 -5.1646636746781756
462 -6.394441243535252 -14.769925768716993 -10.593713832249195
465 -20.219251408917668 9.908194850151144 -11.89050112271722
496 -0.8284941387955538 -1.6943119330920804 1.9765762886036624
106 -17.72325407848933 -14.962143363040783 9.321767704715672
113 6.8473987336124 -17.416355692309512 1.4544707478268084
119 -10.691375748745491 11.726483091782544 6.158873871204258
117 1.0325331817337313 -12.216229783587645 -4.971770754072387
118 -1.457362584690342 -6.2478923319291555 4.307309193551778
24 -0.5626712050591357 14.739348434694719 18.298847025717098
146 10.225995384705659 13.312338432121942 30.879475411917056
244 -12.702389577827415 -0.311176701614559 -3.349022176897369
246 -14.946266305646175 1.968175097201185 -29.690738727141742
152 17.30834107625821 7.978434859176758 0.3132530712631645
274 11.487211570537406 -10.710832337637681 9.614272097021976
374 1.6811004869640465 3.0691644521689883 -10.240953640838653
372 1.4026885674946716 11.041160437551767 5.643967794501145
280 13.785060840025215 -11.587756094743465 -20.425520889601923
402 -4.345601860351176 7.534853451122015 1.0343553528132736
499 -11.48992459964198 -1.2311826571673097 3.75499230870016
500 -4.755374872468724 -7.080263905872902 16.57425933542858
23 -0.9183814598324863 -19.68561627371318 -9.884947908595013
17 6.244377282871383 1.9997776201096171 -2.652603218902542
440 -8.812490632653754 -17.033536899516058 -13.900504501163624
50 -24.557943331793563 -11.424403271421165 -8.376080753852657
21 12.986758623786836 -8.662113676317153 1.7012133809778267
20 6.301580045920906 -3.2136751372185652 -14.072968923520072
22 16.210851087904096 -16.063408663516416 6.637373041262105
178 -21.43810716528103 1.6967854986336535 11.20061545750866
56 9.296279992273167 -22.246999768263787 -11.51987870706594
148 6.2999248487626085 -5.907095207323352 -6.577405178931474
150 19.205423586008035 -15.623602081616792 -11.217545231910783
184 1.9971568722796926 6.838648206467344 -12.892364312022934
306 13.64485633866542 -2.9560317476271916 2.2075381554291735
276 -5.169581355762797 -11.095322746275796 9.244536871227222
278 -30.5056965692703 -22.38704988751281 11.502315934914119
407 7.65679121433018 2.488927810300499 -15.881603700344439
434 -7.321202505149137 -2.0758186631149353 8.043783690339737
312 -29.53545422913157 17.74003776049288 -3.629325184339388
403 -10.365212754987484 -5.730567588617948 -12.405684418912474
405 29.91426125302029 -3.5410432232747837 5.308372455096439
404 12.267022877108781 -10.643567258632233 -0.9024716296357389
406 9.130475125949483 21.292655117504292 -2.861643005921408
49 3.714680625544574 5.681210378014555 7.547758529215282
55 3.7171574456256633 23.04830869152204 -14.870825280769317
472 1.4186729504535631 1.0146546942455286 -32.98437142001468
82 6.485578722903128 10.553100774333037 -0.7336213749946454
53 -12.17232507713246 -20.825239356536393 26.203827090296294
54 4.213457283137034 8.069277990295653 -14.465637974559423
52 -14.319160797581969 0.3938412363972642 9.46160078802941
88 -21.4333570606681 13.816918918986389 -11.547791581410127
210 -3.3598626432033476 5.3014159737893545 14.31548987706761
180 -9.381638516619047 5.870501647386039 4.845584986599583
182 -17.51354992809876 9.71913704533304 -6.844179568276774
338 -19.438432259028296 -1.256758069707965 -2.4346374868211687
216 -11.27744948353621 19.323414721720198 0.6688525446713549
308 -27.401441145638977 -10.486972182965713 6.018199959331091
310 -6.563623415882259 12.174710752527195 0.8772040203869302
466 6.466662541656415 -10.427883476758662 20.14334120269962
344 12.169682021271115 3.5333295638215274 10.126372789708583
435 0.7496882144034157 -1.0914434160910997 -12.349649395838872
437 0.6456477445482204 15.513790622343583 12.527663120395312
438 16.894055579006032 -1.3167207326598904 -2.584683395718876
436 13.067667430504136 14.66829771278977 -21.32832691082575
81 -6.344233796267737 -6.3260383428997455 12.463472768781884
87 -3.8301477536404573 13.379558743106319 2.1522905108795563
504 -1.919328527037324 12.586517837648795 -22.956854975686532
114 -14.517258118145191 2.89858422516543 22.172962907837636
85 -0.060918648596804605 -12.288980293788228 -8.976236932871917
84 -7.637950797029059 -18.53745296095441 -2.363129901097
86 5.285053059253927 -12.901673606886726 9.721115513084337
242 -8.481603912205419 7.205529346252554 4.819899224331605
120 3.812421632408696 -11.533723272743584 28.41540031414386
212 15.04527921085243 19.690473356863716 -4.923859116300428
214 -5.989814727632673 -14.78006776395146 -1.104368775486247
248 0.03862276277016285 -14.481440498445743 -1.4883223666825935
370 3.367099715244195 19.418061665398326 -30.364106963249572
340 9.479700476984743 10.654203878084425 -10.071257013883603
342 3.1368137262851015 26.743373242497416 20.90316294531352
471 -15.497220926806317 -0.7122424481290706 -24.844268853100033
376 6.660387352189228 -9.32237594244175 24.99618659655624
498 14.481015853335727 13.427785177492858 20.117601997004
467 -1.8778100206033894 -0.3188606368397199 13.957842366749302
469 -8.782301912757395 -1.7271612435453034 0.8130669659888139
468 -0.5589482279650072 2.279321365973472 0.14714375982320727
470 -12.546251399678818 8.54108747674912 -9.759825789446403
18 -8.322313535610109 -11.651520586568452 -0.5645316731696636
408 -2.744132262957689 17.381924467337615 -19.00641010937388
63 -10.855106396025732 -2.665010069008785 -4.385213038117551
57 -15.23562520165927 2.5528248737725714 -2.8013277610297678
116 6.001588949501768 20.67629263921191 8.407019878479534
61 8.023137896956033 9.155239349571902 6.9908706774885
59 -8.343994753419228 1.6914570033892498 -4.673960951903314
191 -8.596809418477164 30.065840296816052 7.719061686280992
185 6.797595978640225 -1.0361173733643996 33.63318461418073
189 8.50415184034378 7.444996588206772 6.802436870662063
187 -9.134719204153106 -4.009141757415743 7.280772719135087
313 -18.803406012713115 13.29020006769715 -17.106620108583876
319 -16.725218465645476 -13.86804444966047 7.203134330869625
317 0.8491129856231779 3.054927541891318 8.196432200112449
315 8.94411894301459 5.334999867109493 -12.003164836536252
441 -8.160041881807578 -22.500016575019522 -13.882652201440822
447 -1.4906576581459596 -3.230956623043627 -6.177372711987044
502 2.2682938956612397 -4.370539606217126 13.167466532615785
443 3.476479595541058 -18.954720057709327 -17.563611582169074
445 -14.615657236951899 -7.058383856054625 6.974208889720184
89 8.533809298083296 17.226566654531645 -15.327250782646718
95 9.335609578162549 -4.327280065848011 11.197329628149191
91 6.2041490041511675 1.253464529689657 -6.113835382943132
93 9.110267520740647 11.523442596158588 35.92418020882652
223 -2.9858382111549857 -15.130351302153617 9.330950632684432
217 -6.080527434145616 -4.12688739614431 -11.336528640280347
221 -7.919851976990731 14.13491090603994 -11.196966522056357
219 7.6788045670257645 12.37065975808913 10.389579298308625
345 -12.456726790298237 10.37439099062163 1.0543513083232778
351 12.096334396726105 4.890249411002035 -10.358958344883646
347 4.2556309409371025 15.359586822746639 1.612436255231823
349 4.437590168500614 -14.396164087113812 19.152826724298023
473 22.05778738330704 -3.3889819748096355 22.02360733487674
479 -25.84566428085083 9.947343974203843 -0.18111035201774298
475 23.458199831465077 4.704401062566143 -16.05245634135
477 -7.004986552438279 -19.331390772797867 -4.1765011566240435
127 5.263631960899438 -8.129883048975076 11.441521479288888
121 -3.4903222540770567 0.7915752155457014 6.111602848634681
125 34.78403905781596 6.701155762382811 4.530576191058062
123 5.105960815380402 -1.2521461350252299 -9.123571055226863
249 -7.886985475009449 -3.445138386332521 -16.145200898125612
255 6.690639587097013 -12.937760419914513 11.631190455998961
253 1.2184672218634824 5.228954282911387 -24.154226580159797
251 19.3930812349904 8.591171951248576 9.229896586762358
377 -32.722027370118994 21.086530023680755 2.4429673475157347
383 12.499530349238947 -9.931860294298735 6.158399248059133
379 -1.6080413143705707 -15.60559520412681 -1.2061882866907323
381 -3.306487473752086 -5.047184331062855 2.23711675294013
511 -15.730875667238765 -26.950097430202774 -3.116377215763342
505 13.68989599030171 5.694071616696763 -10.23849355852636
507 -4.6263191173329945 8.498091312060696 -3.382666428920637
509 6.648945304618635 -3.1853688282931714 7.328125805667995
25 -5.918856617215825 -20.61620869422237 0.5044776342570592
31 16.37170362656886 3.9764715233479846 -15.248798905521925
29 3.4562784179137935 1.0747864756853784 11.65645697205147
27 -16.458268767303725 -2.8044965899287266 -5.955373328293133
159 30.35530388211253 -1.0894906830012914 7.56318067251963
153 2.804118388715966 -6.724732967610172 -1.3622278604296647
157 17.62873867465816 6.3963848151098555 -5.371798057312866
155 9.96960897712247 -2.6227113222831497 -10.413463205934482
281 11.331567425340623 -8.459811555384263 11.569597819531904
287 -14.170063457628185 12.292732144189676 -2.2074171732854064
283 2.4613824336037236 0.8356411366159947 -7.02865066912953
285 5.974433268728409 -8.972650477276835 17.645578910185353
415 -12.902767778769352 12.98220459652119 8.448847770934487
409 4.849721685603501 -3.4337308655442147 5.876448472674413
411 -1.9532991650819191 15.208621225284041 27.85319861456955
413 -18.45352054760096 1.082080116720782 6.837923083232398
60 6.415342958816126 1.495829529023078 -9.199210763440204
62 -13.334335990181483 -13.87802045261223 6.128319050103256
186 5.51193377308967 10.172693291501016 -11.58274832745426
64 12.279374550306908 -9.888687489342779 -4.7831465885647555
188 -25.679096675096023 -13.443823568971407 4.5309014777480385
190 5.524645029872355 2.378448992847648 13.567138116027115
314 -3.9969451750131246 0.802805447780119 -0.6825972647133508
192 -14.812523245440508 5.135697912597524 -13.970786794766942
316 -26.293068506128407 -8.960571083832647 0.3678374500659838
318 5.22975304142068 -0.6968348342426114 3.285724594818825
320 7.085012427281806 7.514362065867996 -22.945260920590275
442 23.38967481196109 21.76565690898626 -3.5822551019496265
444 -4.58101504140671 11.887290830524119 -19.242042530973663
446 20.74161320455187 -3.606623540134691 10.244816848930633
448 0.6859180681034335 22.336582917024327 6.485384359164523
58 3.5441514621686276 -7.391545525032461 -3.710419657499374
92 -19.433169879111976 8.94495332279238 -4.048909778361434
94 1.695388242202062 -3.760554710702976 -5.593878299179239
96 1.9476023432920466 4.861844646009938 2.8804304908933265
218 5.69337158341406 12.843321434898499 -4.998607879644389
220 9.270229429703745 -5.782513488745197 4.205312067943564
222 12.993439360042027 22.731584518612408 14.569695318432856
224 4.655155297278837 -23.17556457965697 3.593750287755066
346 11.245693510736631 -6.352606270240101 -4.181474879203063
348 17.31111041999989 12.031847859112794 13.056729945775258
350 -3.953540107139328 -9.540038234627383 -12.962792389089419
352 -8.213763353320148 -6.627338302393375 20.01255476187215
474 0.16710439614175263 6.6077088581465375 7.465512663975511
476 17.986094777088002 17.427718706215714 -5.552933126990222
478 -20.832805100812376 -3.539589965232126 -8.624003059958289
480 13.705080484406455 -6.083866599993089 11.92888017855802
90 -6.653527672403546 -1.0202984612026147 28.736433940498273
124 -17.406065313028762 12.167524172319109 -0.12165206038666755
126 -3.856008641418241 -11.307655758332467 13.146818151605865
250 -12.942136752302893 -5.711459716592381 -8.307830279813446
128 -9.132396592113814 0.9454363103621428 7.86698065430553
252 11.263162169282905 23.113947938538956 3.250159993047338
254 -1.5927871261192534 -3.0794058739654857 9.857168890890451
378 7.590810085037978 -1.814243235311516 -13.234938866339299
256 10.045747782627416 -13.07666630393095 4.65371629993046
380 -6.208826593336148 1.6175972663065714 -17.31416813945858
382 -14.050341387261561 15.287343825130685 -15.5313929118613
384 3.051682435292571 -1.7943222591037682 12.99567021580986
506 15.019847992624992 -23.160759413813135 14.895466551423041
508 -20.10865497325372 -16.50998355171796 -6.385323378652302
510 8.971609111796385 -6.910057379877189 -6.531075399680797
122 2.8332510006570484 17.259586718920254 -19.07271983700981
512 -1.3175652904270607 -12.260653361640639 -1.438176145762101
28 0.13217485023482867 -13.496021541464136 9.564743862447111
30 0.15435643602944377 -21.93923525960448 -7.589927753284213
154 -24.34016633627876 2.5358973480011193 26.054062638652837
32 7.360065230598859 7.560333810246442 17.863137509754313
156 -1.7239524332885572 -2.6334565547545923 1.522211326308903
158 22.235563937962407 4.252008954077137 -11.348492799536395
160 -8.517125063235513 -14.481241023946861 21.983527311478262
282 -10.142695397550193 -26.078238517245765 -10.955450532400233
284 -14.631708033728225 -9.472528814377704 -3.7960083051447473
286 -8.244523428441187 -11.612504446484335 -33.88429276554148
410 0.7620203664942269 7.071556027274483 -14.323242985090632
288 -12.078987865028294 -4.964065630541836 -14.505559240553497
412 -3.0913259031588702 6.4816654511830665 -1.576161753006365
414 -5.424147310336594 14.855935012223911 -11.569670610867776
416 -6.671071789651071 11.314614223795004 17.55121642112611
26 11.297670909485321 4.20471874645851 -8.572386157943535
