(written by ASE)

1000 atoms
1 atom types

0.0      21.367369096953166  xlo xhi
0.0      12.336456300000004  ylo yhi
0.0      39.015365000000003  zlo zhi

Masses

     1      12.010999996910238 # C

Atoms # atomic

     1   1                       0                       0      1.9507682500000001
     2   1                       0                       0      5.8523047499999983
     3   1      3.5612281685806142      1.2336456300000007      1.9507682500000001
     4   1     0.71224565081001823              1.23364563      5.8523047499999983
     5   1      2.1367369096953155              1.23364563      1.9507682500000001
     6   1      2.1367369096953155              1.23364563      5.8523047499999983
     7   1      1.4244912588852983  4.7821812967193849e-17      1.9507682500000001
     8   1       2.848982560505334 -2.8275429079042238e-17      5.8523047499999983
     9   1                       0                       0      9.7538412500000007
    10   1                       0                       0             13.65537775
    11   1      3.5612281685806142      1.2336456300000007      9.7538412500000007
    12   1     0.71224565081001823              1.23364563             13.65537775
    13   1      2.1367369096953155              1.23364563      9.7538412500000007
    14   1      2.1367369096953155              1.23364563             13.65537775
    15   1      1.4244912588852983  4.7821812967193849e-17      9.7538412500000007
    16   1       2.848982560505334 -2.8275429079042238e-17             13.65537775
    17   1                       0                       0      17.556914250000002
    18   1                       0                       0      21.458450749999997
    19   1      3.5612281685806142      1.2336456300000007      17.556914250000002
    20   1     0.71224565081001823              1.23364563      21.458450749999997
    21   1      2.1367369096953155              1.23364563      17.556914250000002
    22   1      2.1367369096953155              1.23364563      21.458450749999997
    23   1      1.4244912588852983  4.7821812967193849e-17      17.556914250000002
    24   1       2.848982560505334 -2.8275429079042238e-17      21.458450749999997
    25   1                       0                       0             25.35998725
    26   1                       0                       0      29.261523749999999
    27   1      3.5612281685806142      1.2336456300000007             25.35998725
    28   1     0.71224565081001823              1.23364563      29.261523749999999
    29   1      2.1367369096953155              1.23364563             25.35998725
    30   1      2.1367369096953155              1.23364563      29.261523749999999
    31   1      1.4244912588852983  4.7821812967193849e-17             25.35998725
    32   1       2.848982560505334 -2.8275429079042238e-17      29.261523749999999
    33   1                       0                       0      33.163060250000001
    34   1                       0                       0             37.06459675
    35   1      3.5612281685806142      1.2336456300000007      33.163060250000001
    36   1     0.71224565081001823              1.23364563             37.06459675
    37   1      2.1367369096953155              1.23364563      33.163060250000001
    38   1      2.1367369096953155              1.23364563             37.06459675
    39   1      1.4244912588852983  4.7821812967193849e-17      33.163060250000001
    40   1       2.848982560505334 -2.8275429079042238e-17             37.06459675
    41   1 -2.3722545147101446e-16      2.4672912600000005      1.9507682500000001
    42   1 -2.3722545147101446e-16      2.4672912600000005      5.8523047499999983
    43   1      3.5612281685806138      3.7009368900000008      1.9507682500000001
    44   1     0.71224565081001778      3.7009368900000004      5.8523047499999983
    45   1      2.1367369096953155      3.7009368900000008      1.9507682500000001
    46   1      2.1367369096953155      3.7009368900000008      5.8523047499999983
    47   1      1.4244912588852978      2.4672912600000005      1.9507682500000001
    48   1       2.848982560505334       2.467291260000001      5.8523047499999983
    49   1 -2.3722545147101446e-16      2.4672912600000005      9.7538412500000007
    50   1 -2.3722545147101446e-16      2.4672912600000005             13.65537775
    51   1      3.5612281685806138      3.7009368900000008      9.7538412500000007
    52   1     0.71224565081001778      3.7009368900000004             13.65537775
    53   1      2.1367369096953155      3.7009368900000008      9.7538412500000007
    54   1      2.1367369096953155      3.7009368900000008             13.65537775
    55   1      1.4244912588852978      2.4672912600000005      9.7538412500000007
    56   1       2.848982560505334       2.467291260000001             13.65537775
    57   1 -2.3722545147101446e-16      2.4672912600000005      17.556914250000002
    58   1 -2.3722545147101446e-16      2.4672912600000005      21.458450749999997
    59   1      3.5612281685806138      3.7009368900000008      17.556914250000002
    60   1     0.71224565081001778      3.7009368900000004      21.458450749999997
    61   1      2.1367369096953155      3.7009368900000008      17.556914250000002
    62   1      2.1367369096953155      3.7009368900000008      21.458450749999997
    63   1      1.4244912588852978      2.4672912600000005      17.556914250000002
    64   1       2.848982560505334       2.467291260000001      21.458450749999997
    65   1 -2.3722545147101446e-16      2.4672912600000005             25.35998725
    66   1 -2.3722545147101446e-16      2.4672912600000005      29.261523749999999
    67   1      3.5612281685806138      3.7009368900000008             25.35998725
    68   1     0.71224565081001778      3.7009368900000004      29.261523749999999
    69   1      2.1367369096953155      3.7009368900000008             25.35998725
    70   1      2.1367369096953155      3.7009368900000008      29.261523749999999
    71   1      1.4244912588852978      2.4672912600000005             25.35998725
    72   1       2.848982560505334       2.467291260000001      29.261523749999999
    73   1 -2.3722545147101446e-16      2.4672912600000005      33.163060250000001
    74   1 -2.3722545147101446e-16      2.4672912600000005             37.06459675
    75   1      3.5612281685806138      3.7009368900000008      33.163060250000001
    76   1     0.71224565081001778      3.7009368900000004             37.06459675
    77   1      2.1367369096953155      3.7009368900000008      33.163060250000001
    78   1      2.1367369096953155      3.7009368900000008             37.06459675
    79   1      1.4244912588852978      2.4672912600000005      33.163060250000001
    80   1       2.848982560505334       2.467291260000001             37.06459675
    81   1 -4.7445090294202892e-16      4.9345825200000011      1.9507682500000001
    82   1 -4.7445090294202892e-16      4.9345825200000011      5.8523047499999983
    83   1      3.5612281685806138      6.1682281500000018      1.9507682500000001
    84   1     0.71224565081001756      6.1682281500000018      5.8523047499999983
    85   1      2.1367369096953155      6.1682281500000018      1.9507682500000001
    86   1      2.1367369096953155      6.1682281500000018      5.8523047499999983
    87   1      1.4244912588852978      4.9345825200000011      1.9507682500000001
    88   1      2.8489825605053336      4.9345825200000011      5.8523047499999983
    89   1 -4.7445090294202892e-16      4.9345825200000011      9.7538412500000007
    90   1 -4.7445090294202892e-16      4.9345825200000011             13.65537775
    91   1      3.5612281685806138      6.1682281500000018      9.7538412500000007
    92   1     0.71224565081001756      6.1682281500000018             13.65537775
    93   1      2.1367369096953155      6.1682281500000018      9.7538412500000007
    94   1      2.1367369096953155      6.1682281500000018             13.65537775
    95   1      1.4244912588852978      4.9345825200000011      9.7538412500000007
    96   1      2.8489825605053336      4.9345825200000011             13.65537775
    97   1 -4.7445090294202892e-16      4.9345825200000011      17.556914250000002
    98   1 -4.7445090294202892e-16      4.9345825200000011      21.458450749999997
    99   1      3.5612281685806138      6.1682281500000018      17.556914250000002
   100   1     0.71224565081001756      6.1682281500000018      21.458450749999997
   101   1      2.1367369096953155      6.1682281500000018      17.556914250000002
   102   1      2.1367369096953155      6.1682281500000018      21.458450749999997
   103   1      1.4244912588852978      4.9345825200000011      17.556914250000002
   104   1      2.8489825605053336      4.9345825200000011      21.458450749999997
   105   1 -4.7445090294202892e-16      4.9345825200000011             25.35998725
   106   1 -4.7445090294202892e-16      4.9345825200000011      29.261523749999999
   107   1      3.5612281685806138      6.1682281500000018             25.35998725
   108   1     0.71224565081001756      6.1682281500000018      29.261523749999999
   109   1      2.1367369096953155      6.1682281500000018             25.35998725
   110   1      2.1367369096953155      6.1682281500000018      29.261523749999999
   111   1      1.4244912588852978      4.9345825200000011             25.35998725
   112   1      2.8489825605053336      4.9345825200000011      29.261523749999999
   113   1 -4.7445090294202892e-16      4.9345825200000011      33.163060250000001
   114   1 -4.7445090294202892e-16      4.9345825200000011             37.06459675
   115   1      3.5612281685806138      6.1682281500000018      33.163060250000001
   116   1     0.71224565081001756      6.1682281500000018             37.06459675
   117   1      2.1367369096953155      6.1682281500000018      33.163060250000001
   118   1      2.1367369096953155      6.1682281500000018             37.06459675
   119   1      1.4244912588852978      4.9345825200000011      33.163060250000001
   120   1      2.8489825605053336      4.9345825200000011             37.06459675
   121   1 -7.1167635441304334e-16      7.4018737800000016      1.9507682500000001
   122   1 -7.1167635441304334e-16      7.4018737800000016      5.8523047499999983
   123   1      3.5612281685806138      8.6355194100000023      1.9507682500000001
   124   1     0.71224565081001823      8.6355194100000023      5.8523047499999983
   125   1      2.1367369096953146      8.6355194100000023      1.9507682500000001
   126   1      2.1367369096953146      8.6355194100000023      5.8523047499999983
   127   1      1.4244912588852976      7.4018737800000016      1.9507682500000001
   128   1      2.8489825605053336      7.4018737800000016      5.8523047499999983
   129   1 -7.1167635441304334e-16      7.4018737800000016      9.7538412500000007
   130   1 -7.1167635441304334e-16      7.4018737800000016             13.65537775
   131   1      3.5612281685806138      8.6355194100000023      9.7538412500000007
   132   1     0.71224565081001823      8.6355194100000023             13.65537775
   133   1      2.1367369096953146      8.6355194100000023      9.7538412500000007
   134   1      2.1367369096953146      8.6355194100000023             13.65537775
   135   1      1.4244912588852976      7.4018737800000016      9.7538412500000007
   136   1      2.8489825605053336      7.4018737800000016             13.65537775
   137   1 -7.1167635441304334e-16      7.4018737800000016      17.556914250000002
   138   1 -7.1167635441304334e-16      7.4018737800000016      21.458450749999997
   139   1      3.5612281685806138      8.6355194100000023      17.556914250000002
   140   1     0.71224565081001823      8.6355194100000023      21.458450749999997
   141   1      2.1367369096953146      8.6355194100000023      17.556914250000002
   142   1      2.1367369096953146      8.6355194100000023      21.458450749999997
   143   1      1.4244912588852976      7.4018737800000016      17.556914250000002
   144   1      2.8489825605053336      7.4018737800000016      21.458450749999997
   145   1 -7.1167635441304334e-16      7.4018737800000016             25.35998725
   146   1 -7.1167635441304334e-16      7.4018737800000016      29.261523749999999
   147   1      3.5612281685806138      8.6355194100000023             25.35998725
   148   1     0.71224565081001823      8.6355194100000023      29.261523749999999
   149   1      2.1367369096953146      8.6355194100000023             25.35998725
   150   1      2.1367369096953146      8.6355194100000023      29.261523749999999
   151   1      1.4244912588852976      7.4018737800000016             25.35998725
   152   1      2.8489825605053336      7.4018737800000016      29.261523749999999
   153   1 -7.1167635441304334e-16      7.4018737800000016      33.163060250000001
   154   1 -7.1167635441304334e-16      7.4018737800000016             37.06459675
   155   1      3.5612281685806138      8.6355194100000023      33.163060250000001
   156   1     0.71224565081001823      8.6355194100000023             37.06459675
   157   1      2.1367369096953146      8.6355194100000023      33.163060250000001
   158   1      2.1367369096953146      8.6355194100000023             37.06459675
   159   1      1.4244912588852976      7.4018737800000016      33.163060250000001
   160   1      2.8489825605053336      7.4018737800000016             37.06459675
   161   1 -9.4890180588405785e-16      9.8691650400000022      1.9507682500000001
   162   1 -9.4890180588405785e-16      9.8691650400000022      5.8523047499999983
   163   1      3.5612281685806124      11.102810670000004      1.9507682500000001
   164   1     0.71224565081001756      11.102810670000002      5.8523047499999983
   165   1      2.1367369096953146      11.102810670000002      1.9507682500000001
   166   1      2.1367369096953146      11.102810670000002      5.8523047499999983
   167   1      1.4244912588852974      9.8691650400000022      1.9507682500000001
   168   1      2.8489825605053332      9.8691650400000022      5.8523047499999983
   169   1 -9.4890180588405785e-16      9.8691650400000022      9.7538412500000007
   170   1 -9.4890180588405785e-16      9.8691650400000022             13.65537775
   171   1      3.5612281685806124      11.102810670000004      9.7538412500000007
   172   1     0.71224565081001756      11.102810670000002             13.65537775
   173   1      2.1367369096953146      11.102810670000002      9.7538412500000007
   174   1      2.1367369096953146      11.102810670000002             13.65537775
   175   1      1.4244912588852974      9.8691650400000022      9.7538412500000007
   176   1      2.8489825605053332      9.8691650400000022             13.65537775
   177   1 -9.4890180588405785e-16      9.8691650400000022      17.556914250000002
   178   1 -9.4890180588405785e-16      9.8691650400000022      21.458450749999997
   179   1      3.5612281685806124      11.102810670000004      17.556914250000002
   180   1     0.71224565081001756      11.102810670000002      21.458450749999997
   181   1      2.1367369096953146      11.102810670000002      17.556914250000002
   182   1      2.1367369096953146      11.102810670000002      21.458450749999997
   183   1      1.4244912588852974      9.8691650400000022      17.556914250000002
   184   1      2.8489825605053332      9.8691650400000022      21.458450749999997
   185   1 -9.4890180588405785e-16      9.8691650400000022             25.35998725
   186   1 -9.4890180588405785e-16      9.8691650400000022      29.261523749999999
   187   1      3.5612281685806124      11.102810670000004             25.35998725
   188   1     0.71224565081001756      11.102810670000002      29.261523749999999
   189   1      2.1367369096953146      11.102810670000002             25.35998725
   190   1      2.1367369096953146      11.102810670000002      29.261523749999999
   191   1      1.4244912588852974      9.8691650400000022             25.35998725
   192   1      2.8489825605053332      9.8691650400000022      29.261523749999999
   193   1 -9.4890180588405785e-16      9.8691650400000022      33.163060250000001
   194   1 -9.4890180588405785e-16      9.8691650400000022             37.06459675
   195   1      3.5612281685806124      11.102810670000004      33.163060250000001
   196   1     0.71224565081001756      11.102810670000002             37.06459675
   197   1      2.1367369096953146      11.102810670000002      33.163060250000001
   198   1      2.1367369096953146      11.102810670000002             37.06459675
   199   1      1.4244912588852974      9.8691650400000022      33.163060250000001
   200   1      2.8489825605053332      9.8691650400000022             37.06459675
   201   1      4.2734738193906328  -7.660175043102658e-17      1.9507682500000001
   202   1      4.2734738193906328  -7.660175043102658e-17      5.8523047499999983
   203   1      7.8347019879712461      1.2336456300000007      1.9507682500000001
   204   1      4.9857194702006513              1.23364563      5.8523047499999983
   205   1      6.4102107290859482      1.2336456300000003      1.9507682500000001
   206   1      6.4102107290859482      1.2336456300000003      5.8523047499999983
   207   1      5.6979650782759306 -3.4697267670804223e-16      1.9507682500000001
   208   1      7.1224563798959659  1.1716742541496249e-16      5.8523047499999983
   209   1      4.2734738193906328  -7.660175043102658e-17      9.7538412500000007
   210   1      4.2734738193906328  -7.660175043102658e-17             13.65537775
   211   1      7.8347019879712461      1.2336456300000007      9.7538412500000007
   212   1      4.9857194702006513              1.23364563             13.65537775
   213   1      6.4102107290859482      1.2336456300000003      9.7538412500000007
   214   1      6.4102107290859482      1.2336456300000003             13.65537775
   215   1      5.6979650782759306 -3.4697267670804223e-16      9.7538412500000007
   216   1      7.1224563798959659  1.1716742541496249e-16             13.65537775
   217   1      4.2734738193906328  -7.660175043102658e-17      17.556914250000002
   218   1      4.2734738193906328  -7.660175043102658e-17      21.458450749999997
   219   1      7.8347019879712461      1.2336456300000007      17.556914250000002
   220   1      4.9857194702006513              1.23364563      21.458450749999997
   221   1      6.4102107290859482      1.2336456300000003      17.556914250000002
   222   1      6.4102107290859482      1.2336456300000003      21.458450749999997
   223   1      5.6979650782759306 -3.4697267670804223e-16      17.556914250000002
   224   1      7.1224563798959659  1.1716742541496249e-16      21.458450749999997
   225   1      4.2734738193906328  -7.660175043102658e-17             25.35998725
   226   1      4.2734738193906328  -7.660175043102658e-17      29.261523749999999
   227   1      7.8347019879712461      1.2336456300000007             25.35998725
   228   1      4.9857194702006513              1.23364563      29.261523749999999
   229   1      6.4102107290859482      1.2336456300000003             25.35998725
   230   1      6.4102107290859482      1.2336456300000003      29.261523749999999
   231   1      5.6979650782759306 -3.4697267670804223e-16             25.35998725
   232   1      7.1224563798959659  1.1716742541496249e-16      29.261523749999999
   233   1      4.2734738193906328  -7.660175043102658e-17      33.163060250000001
   234   1      4.2734738193906328  -7.660175043102658e-17             37.06459675
   235   1      7.8347019879712461      1.2336456300000007      33.163060250000001
   236   1      4.9857194702006513              1.23364563             37.06459675
   237   1      6.4102107290859482      1.2336456300000003      33.163060250000001
   238   1      6.4102107290859482      1.2336456300000003             37.06459675
   239   1      5.6979650782759306 -3.4697267670804223e-16      33.163060250000001
   240   1      7.1224563798959659  1.1716742541496249e-16             37.06459675
   241   1      4.2734738193906319      2.4672912600000005      1.9507682500000001
   242   1      4.2734738193906319      2.4672912600000005      5.8523047499999983
   243   1      7.8347019879712452      3.7009368900000008      1.9507682500000001
   244   1      4.9857194702006504      3.7009368900000008      5.8523047499999983
   245   1      6.4102107290859482      3.7009368900000008      1.9507682500000001
   246   1      6.4102107290859482      3.7009368900000008      5.8523047499999983
   247   1      5.6979650782759306       2.467291260000001      1.9507682500000001
   248   1      7.1224563798959659      2.4672912600000005      5.8523047499999983
   249   1      4.2734738193906319      2.4672912600000005      9.7538412500000007
   250   1      4.2734738193906319      2.4672912600000005             13.65537775
   251   1      7.8347019879712452      3.7009368900000008      9.7538412500000007
   252   1      4.9857194702006504      3.7009368900000008             13.65537775
   253   1      6.4102107290859482      3.7009368900000008      9.7538412500000007
   254   1      6.4102107290859482      3.7009368900000008             13.65537775
   255   1      5.6979650782759306       2.467291260000001      9.7538412500000007
   256   1      7.1224563798959659      2.4672912600000005             13.65537775
   257   1      4.2734738193906319      2.4672912600000005      17.556914250000002
   258   1      4.2734738193906319      2.4672912600000005      21.458450749999997
   259   1      7.8347019879712452      3.7009368900000008      17.556914250000002
   260   1      4.9857194702006504      3.7009368900000008      21.458450749999997
   261   1      6.4102107290859482      3.7009368900000008      17.556914250000002
   262   1      6.4102107290859482      3.7009368900000008      21.458450749999997
   263   1      5.6979650782759306       2.467291260000001      17.556914250000002
   264   1      7.1224563798959659      2.4672912600000005      21.458450749999997
   265   1      4.2734738193906319      2.4672912600000005             25.35998725
   266   1      4.2734738193906319      2.4672912600000005      29.261523749999999
   267   1      7.8347019879712452      3.7009368900000008             25.35998725
   268   1      4.9857194702006504      3.7009368900000008      29.261523749999999
   269   1      6.4102107290859482      3.7009368900000008             25.35998725
   270   1      6.4102107290859482      3.7009368900000008      29.261523749999999
   271   1      5.6979650782759306       2.467291260000001             25.35998725
   272   1      7.1224563798959659      2.4672912600000005      29.261523749999999
   273   1      4.2734738193906319      2.4672912600000005      33.163060250000001
   274   1      4.2734738193906319      2.4672912600000005             37.06459675
   275   1      7.8347019879712452      3.7009368900000008      33.163060250000001
   276   1      4.9857194702006504      3.7009368900000008             37.06459675
   277   1      6.4102107290859482      3.7009368900000008      33.163060250000001
   278   1      6.4102107290859482      3.7009368900000008             37.06459675
   279   1      5.6979650782759306       2.467291260000001      33.163060250000001
   280   1      7.1224563798959659      2.4672912600000005             37.06459675
   281   1      4.2734738193906319       4.934582520000002      1.9507682500000001
   282   1      4.2734738193906319       4.934582520000002      5.8523047499999983
   283   1      7.8347019879712461      6.1682281500000018      1.9507682500000001
   284   1      4.9857194702006513      6.1682281500000018      5.8523047499999983
   285   1      6.4102107290859482      6.1682281500000018      1.9507682500000001
   286   1      6.4102107290859482      6.1682281500000018      5.8523047499999983
   287   1      5.6979650782759306      4.9345825200000011      1.9507682500000001
   288   1      7.1224563798959668       4.934582520000002      5.8523047499999983
   289   1      4.2734738193906319       4.934582520000002      9.7538412500000007
   290   1      4.2734738193906319       4.934582520000002             13.65537775
   291   1      7.8347019879712461      6.1682281500000018      9.7538412500000007
   292   1      4.9857194702006513      6.1682281500000018             13.65537775
   293   1      6.4102107290859482      6.1682281500000018      9.7538412500000007
   294   1      6.4102107290859482      6.1682281500000018             13.65537775
   295   1      5.6979650782759306      4.9345825200000011      9.7538412500000007
   296   1      7.1224563798959668       4.934582520000002             13.65537775
   297   1      4.2734738193906319       4.934582520000002      17.556914250000002
   298   1      4.2734738193906319       4.934582520000002      21.458450749999997
   299   1      7.8347019879712461      6.1682281500000018      17.556914250000002
   300   1      4.9857194702006513      6.1682281500000018      21.458450749999997
   301   1      6.4102107290859482      6.1682281500000018      17.556914250000002
   302   1      6.4102107290859482      6.1682281500000018      21.458450749999997
   303   1      5.6979650782759306      4.9345825200000011      17.556914250000002
   304   1      7.1224563798959668       4.934582520000002      21.458450749999997
   305   1      4.2734738193906319       4.934582520000002             25.35998725
   306   1      4.2734738193906319       4.934582520000002      29.261523749999999
   307   1      7.8347019879712461      6.1682281500000018             25.35998725
   308   1      4.9857194702006513      6.1682281500000018      29.261523749999999
   309   1      6.4102107290859482      6.1682281500000018             25.35998725
   310   1      6.4102107290859482      6.1682281500000018      29.261523749999999
   311   1      5.6979650782759306      4.9345825200000011             25.35998725
   312   1      7.1224563798959668       4.934582520000002      29.261523749999999
   313   1      4.2734738193906319       4.934582520000002      33.163060250000001
   314   1      4.2734738193906319       4.934582520000002             37.06459675
   315   1      7.8347019879712461      6.1682281500000018      33.163060250000001
   316   1      4.9857194702006513      6.1682281500000018             37.06459675
   317   1      6.4102107290859482      6.1682281500000018      33.163060250000001
   318   1      6.4102107290859482      6.1682281500000018             37.06459675
   319   1      5.6979650782759306      4.9345825200000011      33.163060250000001
   320   1      7.1224563798959668       4.934582520000002             37.06459675
   321   1       4.273473819390631      7.4018737800000007      1.9507682500000001
   322   1       4.273473819390631      7.4018737800000007      5.8523047499999983
   323   1      7.8347019879712461      8.6355194100000006      1.9507682500000001
   324   1      4.9857194702006504      8.6355194100000023      5.8523047499999983
   325   1      6.4102107290859465      8.6355194100000006      1.9507682500000001
   326   1      6.4102107290859465      8.6355194100000006      5.8523047499999983
   327   1      5.6979650782759306      7.4018737800000016      1.9507682500000001
   328   1      7.1224563798959659      7.4018737800000007      5.8523047499999983
   329   1       4.273473819390631      7.4018737800000007      9.7538412500000007
   330   1       4.273473819390631      7.4018737800000007             13.65537775
   331   1      7.8347019879712461      8.6355194100000006      9.7538412500000007
   332   1      4.9857194702006504      8.6355194100000023             13.65537775
   333   1      6.4102107290859465      8.6355194100000006      9.7538412500000007
   334   1      6.4102107290859465      8.6355194100000006             13.65537775
   335   1      5.6979650782759306      7.4018737800000016      9.7538412500000007
   336   1      7.1224563798959659      7.4018737800000007             13.65537775
   337   1       4.273473819390631      7.4018737800000007      17.556914250000002
   338   1       4.273473819390631      7.4018737800000007      21.458450749999997
   339   1      7.8347019879712461      8.6355194100000006      17.556914250000002
   340   1      4.9857194702006504      8.6355194100000023      21.458450749999997
   341   1      6.4102107290859465      8.6355194100000006      17.556914250000002
   342   1      6.4102107290859465      8.6355194100000006      21.458450749999997
   343   1      5.6979650782759306      7.4018737800000016      17.556914250000002
   344   1      7.1224563798959659      7.4018737800000007      21.458450749999997
   345   1       4.273473819390631      7.4018737800000007             25.35998725
   346   1       4.273473819390631      7.4018737800000007      29.261523749999999
   347   1      7.8347019879712461      8.6355194100000006             25.35998725
   348   1      4.9857194702006504      8.6355194100000023      29.261523749999999
   349   1      6.4102107290859465      8.6355194100000006             25.35998725
   350   1      6.4102107290859465      8.6355194100000006      29.261523749999999
   351   1      5.6979650782759306      7.4018737800000016             25.35998725
   352   1      7.1224563798959659      7.4018737800000007      29.261523749999999
   353   1       4.273473819390631      7.4018737800000007      33.163060250000001
   354   1       4.273473819390631      7.4018737800000007             37.06459675
   355   1      7.8347019879712461      8.6355194100000006      33.163060250000001
   356   1      4.9857194702006504      8.6355194100000023             37.06459675
   357   1      6.4102107290859465      8.6355194100000006      33.163060250000001
   358   1      6.4102107290859465      8.6355194100000006             37.06459675
   359   1      5.6979650782759306      7.4018737800000016      33.163060250000001
   360   1      7.1224563798959659      7.4018737800000007             37.06459675
   361   1       4.273473819390631      9.8691650400000022      1.9507682500000001
   362   1       4.273473819390631      9.8691650400000022      5.8523047499999983
   363   1      7.8347019879712443      11.102810670000004      1.9507682500000001
   364   1      4.9857194702006487      11.102810670000002      5.8523047499999983
   365   1      6.4102107290859456      11.102810670000002      1.9507682500000001
   366   1      6.4102107290859456      11.102810670000002      5.8523047499999983
   367   1      5.6979650782759297      9.8691650400000022      1.9507682500000001
   368   1      7.1224563798959659      9.8691650400000022      5.8523047499999983
   369   1       4.273473819390631      9.8691650400000022      9.7538412500000007
   370   1       4.273473819390631      9.8691650400000022             13.65537775
   371   1      7.8347019879712443      11.102810670000004      9.7538412500000007
   372   1      4.9857194702006487      11.102810670000002             13.65537775
   373   1      6.4102107290859456      11.102810670000002      9.7538412500000007
   374   1      6.4102107290859456      11.102810670000002             13.65537775
   375   1      5.6979650782759297      9.8691650400000022      9.7538412500000007
   376   1      7.1224563798959659      9.8691650400000022             13.65537775
   377   1       4.273473819390631      9.8691650400000022      17.556914250000002
   378   1       4.273473819390631      9.8691650400000022      21.458450749999997
   379   1      7.8347019879712443      11.102810670000004      17.556914250000002
   380   1      4.9857194702006487      11.102810670000002      21.458450749999997
   381   1      6.4102107290859456      11.102810670000002      17.556914250000002
   382   1      6.4102107290859456      11.102810670000002      21.458450749999997
   383   1      5.6979650782759297      9.8691650400000022      17.556914250000002
   384   1      7.1224563798959659      9.8691650400000022      21.458450749999997
   385   1       4.273473819390631      9.8691650400000022             25.35998725
   386   1       4.273473819390631      9.8691650400000022      29.261523749999999
   387   1      7.8347019879712443      11.102810670000004             25.35998725
   388   1      4.9857194702006487      11.102810670000002      29.261523749999999
   389   1      6.4102107290859456      11.102810670000002             25.35998725
   390   1      6.4102107290859456      11.102810670000002      29.261523749999999
   391   1      5.6979650782759297      9.8691650400000022             25.35998725
   392   1      7.1224563798959659      9.8691650400000022      29.261523749999999
   393   1       4.273473819390631      9.8691650400000022      33.163060250000001
   394   1       4.273473819390631      9.8691650400000022             37.06459675
   395   1      7.8347019879712443      11.102810670000004      33.163060250000001
   396   1      4.9857194702006487      11.102810670000002             37.06459675
   397   1      6.4102107290859456      11.102810670000002      33.163060250000001
   398   1      6.4102107290859456      11.102810670000002             37.06459675
   399   1      5.6979650782759297      9.8691650400000022      33.163060250000001
   400   1      7.1224563798959659      9.8691650400000022             37.06459675
   401   1      8.5469476387812655 -1.5320350086205316e-16      1.9507682500000001
   402   1      8.5469476387812655 -1.5320350086205316e-16      5.8523047499999983
   403   1      12.108175807361878      1.2336456299999998      1.9507682500000001
   404   1      9.2591932895912823              1.23364563      5.8523047499999983
   405   1      10.683684548476579      1.2336456299999996      1.9507682500000001
   406   1      10.683684548476579      1.2336456299999996      5.8523047499999983
   407   1      9.9714388976665624  2.0514782710993805e-17      1.9507682500000001
   408   1        11.3959301992866 -3.4402686229277685e-16      5.8523047499999983
   409   1      8.5469476387812655 -1.5320350086205316e-16      9.7538412500000007
   410   1      8.5469476387812655 -1.5320350086205316e-16             13.65537775
   411   1      12.108175807361878      1.2336456299999998      9.7538412500000007
   412   1      9.2591932895912823              1.23364563             13.65537775
   413   1      10.683684548476579      1.2336456299999996      9.7538412500000007
   414   1      10.683684548476579      1.2336456299999996             13.65537775
   415   1      9.9714388976665624  2.0514782710993805e-17      9.7538412500000007
   416   1        11.3959301992866 -3.4402686229277685e-16             13.65537775
   417   1      8.5469476387812655 -1.5320350086205316e-16      17.556914250000002
   418   1      8.5469476387812655 -1.5320350086205316e-16      21.458450749999997
   419   1      12.108175807361878      1.2336456299999998      17.556914250000002
   420   1      9.2591932895912823              1.23364563      21.458450749999997
   421   1      10.683684548476579      1.2336456299999996      17.556914250000002
   422   1      10.683684548476579      1.2336456299999996      21.458450749999997
   423   1      9.9714388976665624  2.0514782710993805e-17      17.556914250000002
   424   1        11.3959301992866 -3.4402686229277685e-16      21.458450749999997
   425   1      8.5469476387812655 -1.5320350086205316e-16             25.35998725
   426   1      8.5469476387812655 -1.5320350086205316e-16      29.261523749999999
   427   1      12.108175807361878      1.2336456299999998             25.35998725
   428   1      9.2591932895912823              1.23364563      29.261523749999999
   429   1      10.683684548476579      1.2336456299999996             25.35998725
   430   1      10.683684548476579      1.2336456299999996      29.261523749999999
   431   1      9.9714388976665624  2.0514782710993805e-17             25.35998725
   432   1        11.3959301992866 -3.4402686229277685e-16      29.261523749999999
   433   1      8.5469476387812655 -1.5320350086205316e-16      33.163060250000001
   434   1      8.5469476387812655 -1.5320350086205316e-16             37.06459675
   435   1      12.108175807361878      1.2336456299999998      33.163060250000001
   436   1      9.2591932895912823              1.23364563             37.06459675
   437   1      10.683684548476579      1.2336456299999996      33.163060250000001
   438   1      10.683684548476579      1.2336456299999996             37.06459675
   439   1      9.9714388976665624  2.0514782710993805e-17      33.163060250000001
   440   1        11.3959301992866 -3.4402686229277685e-16             37.06459675
   441   1      8.5469476387812637      2.4672912600000001      1.9507682500000001
   442   1      8.5469476387812637      2.4672912600000001      5.8523047499999983
   443   1      12.108175807361878      3.7009368900000013      1.9507682500000001
   444   1      9.2591932895912823      3.7009368900000004      5.8523047499999983
   445   1      10.683684548476581      3.7009368899999999      1.9507682500000001
   446   1      10.683684548476581      3.7009368899999999      5.8523047499999983
   447   1      9.9714388976665624      2.4672912600000001      1.9507682500000001
   448   1      11.395930199286598      2.4672912599999992      5.8523047499999983
   449   1      8.5469476387812637      2.4672912600000001      9.7538412500000007
   450   1      8.5469476387812637      2.4672912600000001             13.65537775
   451   1      12.108175807361878      3.7009368900000013      9.7538412500000007
   452   1      9.2591932895912823      3.7009368900000004             13.65537775
   453   1      10.683684548476581      3.7009368899999999      9.7538412500000007
   454   1      10.683684548476581      3.7009368899999999             13.65537775
   455   1      9.9714388976665624      2.4672912600000001      9.7538412500000007
   456   1      11.395930199286598      2.4672912599999992             13.65537775
   457   1      8.5469476387812637      2.4672912600000001      17.556914250000002
   458   1      8.5469476387812637      2.4672912600000001      21.458450749999997
   459   1      12.108175807361878      3.7009368900000013      17.556914250000002
   460   1      9.2591932895912823      3.7009368900000004      21.458450749999997
   461   1      10.683684548476581      3.7009368899999999      17.556914250000002
   462   1      10.683684548476581      3.7009368899999999      21.458450749999997
   463   1      9.9714388976665624      2.4672912600000001      17.556914250000002
   464   1      11.395930199286598      2.4672912599999992      21.458450749999997
   465   1      8.5469476387812637      2.4672912600000001             25.35998725
   466   1      8.5469476387812637      2.4672912600000001      29.261523749999999
   467   1      12.108175807361878      3.7009368900000013             25.35998725
   468   1      9.2591932895912823      3.7009368900000004      29.261523749999999
   469   1      10.683684548476581      3.7009368899999999             25.35998725
   470   1      10.683684548476581      3.7009368899999999      29.261523749999999
   471   1      9.9714388976665624      2.4672912600000001             25.35998725
   472   1      11.395930199286598      2.4672912599999992      29.261523749999999
   473   1      8.5469476387812637      2.4672912600000001      33.163060250000001
   474   1      8.5469476387812637      2.4672912600000001             37.06459675
   475   1      12.108175807361878      3.7009368900000013      33.163060250000001
   476   1      9.2591932895912823      3.7009368900000004             37.06459675
   477   1      10.683684548476581      3.7009368899999999      33.163060250000001
   478   1      10.683684548476581      3.7009368899999999             37.06459675
   479   1      9.9714388976665624      2.4672912600000001      33.163060250000001
   480   1      11.395930199286598      2.4672912599999992             37.06459675
   481   1      8.5469476387812637      4.9345825200000011      1.9507682500000001
   482   1      8.5469476387812637      4.9345825200000011      5.8523047499999983
   483   1      12.108175807361878      6.1682281500000027      1.9507682500000001
   484   1      9.2591932895912841      6.1682281500000009      5.8523047499999983
   485   1      10.683684548476579      6.1682281500000018      1.9507682500000001
   486   1      10.683684548476579      6.1682281500000018      5.8523047499999983
   487   1      9.9714388976665624      4.9345825200000011      1.9507682500000001
   488   1      11.395930199286598      4.9345825200000011      5.8523047499999983
   489   1      8.5469476387812637      4.9345825200000011      9.7538412500000007
   490   1      8.5469476387812637      4.9345825200000011             13.65537775
   491   1      12.108175807361878      6.1682281500000027      9.7538412500000007
   492   1      9.2591932895912841      6.1682281500000009             13.65537775
   493   1      10.683684548476579      6.1682281500000018      9.7538412500000007
   494   1      10.683684548476579      6.1682281500000018             13.65537775
   495   1      9.9714388976665624      4.9345825200000011      9.7538412500000007
   496   1      11.395930199286598      4.9345825200000011             13.65537775
   497   1      8.5469476387812637      4.9345825200000011      17.556914250000002
   498   1      8.5469476387812637      4.9345825200000011      21.458450749999997
   499   1      12.108175807361878      6.1682281500000027      17.556914250000002
   500   1      9.2591932895912841      6.1682281500000009      21.458450749999997
   501   1      10.683684548476579      6.1682281500000018      17.556914250000002
   502   1      10.683684548476579      6.1682281500000018      21.458450749999997
   503   1      9.9714388976665624      4.9345825200000011      17.556914250000002
   504   1      11.395930199286598      4.9345825200000011      21.458450749999997
   505   1      8.5469476387812637      4.9345825200000011             25.35998725
   506   1      8.5469476387812637      4.9345825200000011      29.261523749999999
   507   1      12.108175807361878      6.1682281500000027             25.35998725
   508   1      9.2591932895912841      6.1682281500000009      29.261523749999999
   509   1      10.683684548476579      6.1682281500000018             25.35998725
   510   1      10.683684548476579      6.1682281500000018      29.261523749999999
   511   1      9.9714388976665624      4.9345825200000011             25.35998725
   512   1      11.395930199286598      4.9345825200000011      29.261523749999999
   513   1      8.5469476387812637      4.9345825200000011      33.163060250000001
   514   1      8.5469476387812637      4.9345825200000011             37.06459675
   515   1      12.108175807361878      6.1682281500000027      33.163060250000001
   516   1      9.2591932895912841      6.1682281500000009             37.06459675
   517   1      10.683684548476579      6.1682281500000018      33.163060250000001
   518   1      10.683684548476579      6.1682281500000018             37.06459675
   519   1      9.9714388976665624      4.9345825200000011      33.163060250000001
   520   1      11.395930199286598      4.9345825200000011             37.06459675
   521   1      8.5469476387812637      7.4018737800000007      1.9507682500000001
   522   1      8.5469476387812637      7.4018737800000007      5.8523047499999983
   523   1      12.108175807361878      8.6355194100000023      1.9507682500000001
   524   1      9.2591932895912823      8.6355194100000023      5.8523047499999983
   525   1      10.683684548476581      8.6355194100000023      1.9507682500000001
   526   1      10.683684548476581      8.6355194100000023      5.8523047499999983
   527   1      9.9714388976665624      7.4018737800000016      1.9507682500000001
   528   1        11.3959301992866      7.4018737800000016      5.8523047499999983
   529   1      8.5469476387812637      7.4018737800000007      9.7538412500000007
   530   1      8.5469476387812637      7.4018737800000007             13.65537775
   531   1      12.108175807361878      8.6355194100000023      9.7538412500000007
   532   1      9.2591932895912823      8.6355194100000023             13.65537775
   533   1      10.683684548476581      8.6355194100000023      9.7538412500000007
   534   1      10.683684548476581      8.6355194100000023             13.65537775
   535   1      9.9714388976665624      7.4018737800000016      9.7538412500000007
   536   1        11.3959301992866      7.4018737800000016             13.65537775
   537   1      8.5469476387812637      7.4018737800000007      17.556914250000002
   538   1      8.5469476387812637      7.4018737800000007      21.458450749999997
   539   1      12.108175807361878      8.6355194100000023      17.556914250000002
   540   1      9.2591932895912823      8.6355194100000023      21.458450749999997
   541   1      10.683684548476581      8.6355194100000023      17.556914250000002
   542   1      10.683684548476581      8.6355194100000023      21.458450749999997
   543   1      9.9714388976665624      7.4018737800000016      17.556914250000002
   544   1        11.3959301992866      7.4018737800000016      21.458450749999997
   545   1      8.5469476387812637      7.4018737800000007             25.35998725
   546   1      8.5469476387812637      7.4018737800000007      29.261523749999999
   547   1      12.108175807361878      8.6355194100000023             25.35998725
   548   1      9.2591932895912823      8.6355194100000023      29.261523749999999
   549   1      10.683684548476581      8.6355194100000023             25.35998725
   550   1      10.683684548476581      8.6355194100000023      29.261523749999999
   551   1      9.9714388976665624      7.4018737800000016             25.35998725
   552   1        11.3959301992866      7.4018737800000016      29.261523749999999
   553   1      8.5469476387812637      7.4018737800000007      33.163060250000001
   554   1      8.5469476387812637      7.4018737800000007             37.06459675
   555   1      12.108175807361878      8.6355194100000023      33.163060250000001
   556   1      9.2591932895912823      8.6355194100000023             37.06459675
   557   1      10.683684548476581      8.6355194100000023      33.163060250000001
   558   1      10.683684548476581      8.6355194100000023             37.06459675
   559   1      9.9714388976665624      7.4018737800000016      33.163060250000001
   560   1        11.3959301992866      7.4018737800000016             37.06459675
   561   1      8.5469476387812637      9.8691650400000039      1.9507682500000001
   562   1      8.5469476387812637      9.8691650400000039      5.8523047499999983
   563   1      12.108175807361878      11.102810670000004      1.9507682500000001
   564   1      9.2591932895912841      11.102810670000004      5.8523047499999983
   565   1      10.683684548476579      11.102810670000004      1.9507682500000001
   566   1      10.683684548476579      11.102810670000004      5.8523047499999983
   567   1      9.9714388976665624      9.8691650400000039      1.9507682500000001
   568   1        11.3959301992866      9.8691650400000039      5.8523047499999983
   569   1      8.5469476387812637      9.8691650400000039      9.7538412500000007
   570   1      8.5469476387812637      9.8691650400000039             13.65537775
   571   1      12.108175807361878      11.102810670000004      9.7538412500000007
   572   1      9.2591932895912841      11.102810670000004             13.65537775
   573   1      10.683684548476579      11.102810670000004      9.7538412500000007
   574   1      10.683684548476579      11.102810670000004             13.65537775
   575   1      9.9714388976665624      9.8691650400000039      9.7538412500000007
   576   1        11.3959301992866      9.8691650400000039             13.65537775
   577   1      8.5469476387812637      9.8691650400000039      17.556914250000002
   578   1      8.5469476387812637      9.8691650400000039      21.458450749999997
   579   1      12.108175807361878      11.102810670000004      17.556914250000002
   580   1      9.2591932895912841      11.102810670000004      21.458450749999997
   581   1      10.683684548476579      11.102810670000004      17.556914250000002
   582   1      10.683684548476579      11.102810670000004      21.458450749999997
   583   1      9.9714388976665624      9.8691650400000039      17.556914250000002
   584   1        11.3959301992866      9.8691650400000039      21.458450749999997
   585   1      8.5469476387812637      9.8691650400000039             25.35998725
   586   1      8.5469476387812637      9.8691650400000039      29.261523749999999
   587   1      12.108175807361878      11.102810670000004             25.35998725
   588   1      9.2591932895912841      11.102810670000004      29.261523749999999
   589   1      10.683684548476579      11.102810670000004             25.35998725
   590   1      10.683684548476579      11.102810670000004      29.261523749999999
   591   1      9.9714388976665624      9.8691650400000039             25.35998725
   592   1        11.3959301992866      9.8691650400000039      29.261523749999999
   593   1      8.5469476387812637      9.8691650400000039      33.163060250000001
   594   1      8.5469476387812637      9.8691650400000039             37.06459675
   595   1      12.108175807361878      11.102810670000004      33.163060250000001
   596   1      9.2591932895912841      11.102810670000004             37.06459675
   597   1      10.683684548476579      11.102810670000004      33.163060250000001
   598   1      10.683684548476579      11.102810670000004             37.06459675
   599   1      9.9714388976665624      9.8691650400000039      33.163060250000001
   600   1        11.3959301992866      9.8691650400000039             37.06459675
   601   1      12.820421458171896 -2.8930192386642959e-16      1.9507682500000001
   602   1      12.820421458171896 -2.8930192386642959e-16      5.8523047499999983
   603   1      16.381649626752509      1.2336456300000014      1.9507682500000001
   604   1      13.532667108981915      1.2336456300000012      5.8523047499999983
   605   1      14.957158367867212      1.2336456300000005      1.9507682500000001
   606   1      14.957158367867212      1.2336456300000005      5.8523047499999983
   607   1      14.244912717057195   7.725947794067426e-16      1.9507682500000001
   608   1      15.669404018677229  2.8905978925627224e-16      5.8523047499999983
   609   1      12.820421458171896 -2.8930192386642959e-16      9.7538412500000007
   610   1      12.820421458171896 -2.8930192386642959e-16             13.65537775
   611   1      16.381649626752509      1.2336456300000014      9.7538412500000007
   612   1      13.532667108981915      1.2336456300000012             13.65537775
   613   1      14.957158367867212      1.2336456300000005      9.7538412500000007
   614   1      14.957158367867212      1.2336456300000005             13.65537775
   615   1      14.244912717057195   7.725947794067426e-16      9.7538412500000007
   616   1      15.669404018677229  2.8905978925627224e-16             13.65537775
   617   1      12.820421458171896 -2.8930192386642959e-16      17.556914250000002
   618   1      12.820421458171896 -2.8930192386642959e-16      21.458450749999997
   619   1      16.381649626752509      1.2336456300000014      17.556914250000002
   620   1      13.532667108981915      1.2336456300000012      21.458450749999997
   621   1      14.957158367867212      1.2336456300000005      17.556914250000002
   622   1      14.957158367867212      1.2336456300000005      21.458450749999997
   623   1      14.244912717057195   7.725947794067426e-16      17.556914250000002
   624   1      15.669404018677229  2.8905978925627224e-16      21.458450749999997
   625   1      12.820421458171896 -2.8930192386642959e-16             25.35998725
   626   1      12.820421458171896 -2.8930192386642959e-16      29.261523749999999
   627   1      16.381649626752509      1.2336456300000014             25.35998725
   628   1      13.532667108981915      1.2336456300000012      29.261523749999999
   629   1      14.957158367867212      1.2336456300000005             25.35998725
   630   1      14.957158367867212      1.2336456300000005      29.261523749999999
   631   1      14.244912717057195   7.725947794067426e-16             25.35998725
   632   1      15.669404018677229  2.8905978925627224e-16      29.261523749999999
   633   1      12.820421458171896 -2.8930192386642959e-16      33.163060250000001
   634   1      12.820421458171896 -2.8930192386642959e-16             37.06459675
   635   1      16.381649626752509      1.2336456300000014      33.163060250000001
   636   1      13.532667108981915      1.2336456300000012             37.06459675
   637   1      14.957158367867212      1.2336456300000005      33.163060250000001
   638   1      14.957158367867212      1.2336456300000005             37.06459675
   639   1      14.244912717057195   7.725947794067426e-16      33.163060250000001
   640   1      15.669404018677229  2.8905978925627224e-16             37.06459675
   641   1      12.820421458171896       2.467291260000001      1.9507682500000001
   642   1      12.820421458171896       2.467291260000001      5.8523047499999983
   643   1      16.381649626752509      3.7009368900000021      1.9507682500000001
   644   1      13.532667108981915      3.7009368900000013      5.8523047499999983
   645   1      14.957158367867212      3.7009368900000008      1.9507682500000001
   646   1      14.957158367867212      3.7009368900000008      5.8523047499999983
   647   1      14.244912717057193      2.4672912600000014      1.9507682500000001
   648   1      15.669404018677231      2.4672912600000019      5.8523047499999983
   649   1      12.820421458171896       2.467291260000001      9.7538412500000007
   650   1      12.820421458171896       2.467291260000001             13.65537775
   651   1      16.381649626752509      3.7009368900000021      9.7538412500000007
   652   1      13.532667108981915      3.7009368900000013             13.65537775
   653   1      14.957158367867212      3.7009368900000008      9.7538412500000007
   654   1      14.957158367867212      3.7009368900000008             13.65537775
   655   1      14.244912717057193      2.4672912600000014      9.7538412500000007
   656   1      15.669404018677231      2.4672912600000019             13.65537775
   657   1      12.820421458171896       2.467291260000001      17.556914250000002
   658   1      12.820421458171896       2.467291260000001      21.458450749999997
   659   1      16.381649626752509      3.7009368900000021      17.556914250000002
   660   1      13.532667108981915      3.7009368900000013      21.458450749999997
   661   1      14.957158367867212      3.7009368900000008      17.556914250000002
   662   1      14.957158367867212      3.7009368900000008      21.458450749999997
   663   1      14.244912717057193      2.4672912600000014      17.556914250000002
   664   1      15.669404018677231      2.4672912600000019      21.458450749999997
   665   1      12.820421458171896       2.467291260000001             25.35998725
   666   1      12.820421458171896       2.467291260000001      29.261523749999999
   667   1      16.381649626752509      3.7009368900000021             25.35998725
   668   1      13.532667108981915      3.7009368900000013      29.261523749999999
   669   1      14.957158367867212      3.7009368900000008             25.35998725
   670   1      14.957158367867212      3.7009368900000008      29.261523749999999
   671   1      14.244912717057193      2.4672912600000014             25.35998725
   672   1      15.669404018677231      2.4672912600000019      29.261523749999999
   673   1      12.820421458171896       2.467291260000001      33.163060250000001
   674   1      12.820421458171896       2.467291260000001             37.06459675
   675   1      16.381649626752509      3.7009368900000021      33.163060250000001
   676   1      13.532667108981915      3.7009368900000013             37.06459675
   677   1      14.957158367867212      3.7009368900000008      33.163060250000001
   678   1      14.957158367867212      3.7009368900000008             37.06459675
   679   1      14.244912717057193      2.4672912600000014      33.163060250000001
   680   1      15.669404018677231      2.4672912600000019             37.06459675
   681   1      12.820421458171896       4.934582520000002      1.9507682500000001
   682   1      12.820421458171896       4.934582520000002      5.8523047499999983
   683   1      16.381649626752509      6.1682281500000018      1.9507682500000001
   684   1      13.532667108981915      6.1682281500000018      5.8523047499999983
   685   1      14.957158367867212      6.1682281500000018      1.9507682500000001
   686   1      14.957158367867212      6.1682281500000018      5.8523047499999983
   687   1      14.244912717057195       4.934582520000002      1.9507682500000001
   688   1      15.669404018677232       4.934582520000002      5.8523047499999983
   689   1      12.820421458171896       4.934582520000002      9.7538412500000007
   690   1      12.820421458171896       4.934582520000002             13.65537775
   691   1      16.381649626752509      6.1682281500000018      9.7538412500000007
   692   1      13.532667108981915      6.1682281500000018             13.65537775
   693   1      14.957158367867212      6.1682281500000018      9.7538412500000007
   694   1      14.957158367867212      6.1682281500000018             13.65537775
   695   1      14.244912717057195       4.934582520000002      9.7538412500000007
   696   1      15.669404018677232       4.934582520000002             13.65537775
   697   1      12.820421458171896       4.934582520000002      17.556914250000002
   698   1      12.820421458171896       4.934582520000002      21.458450749999997
   699   1      16.381649626752509      6.1682281500000018      17.556914250000002
   700   1      13.532667108981915      6.1682281500000018      21.458450749999997
   701   1      14.957158367867212      6.1682281500000018      17.556914250000002
   702   1      14.957158367867212      6.1682281500000018      21.458450749999997
   703   1      14.244912717057195       4.934582520000002      17.556914250000002
   704   1      15.669404018677232       4.934582520000002      21.458450749999997
   705   1      12.820421458171896       4.934582520000002             25.35998725
   706   1      12.820421458171896       4.934582520000002      29.261523749999999
   707   1      16.381649626752509      6.1682281500000018             25.35998725
   708   1      13.532667108981915      6.1682281500000018      29.261523749999999
   709   1      14.957158367867212      6.1682281500000018             25.35998725
   710   1      14.957158367867212      6.1682281500000018      29.261523749999999
   711   1      14.244912717057195       4.934582520000002             25.35998725
   712   1      15.669404018677232       4.934582520000002      29.261523749999999
   713   1      12.820421458171896       4.934582520000002      33.163060250000001
   714   1      12.820421458171896       4.934582520000002             37.06459675
   715   1      16.381649626752509      6.1682281500000018      33.163060250000001
   716   1      13.532667108981915      6.1682281500000018             37.06459675
   717   1      14.957158367867212      6.1682281500000018      33.163060250000001
   718   1      14.957158367867212      6.1682281500000018             37.06459675
   719   1      14.244912717057195       4.934582520000002      33.163060250000001
   720   1      15.669404018677232       4.934582520000002             37.06459675
   721   1      12.820421458171896      7.4018737800000016      1.9507682500000001
   722   1      12.820421458171896      7.4018737800000016      5.8523047499999983
   723   1      16.381649626752509      8.6355194100000006      1.9507682500000001
   724   1      13.532667108981915      8.6355194100000023      5.8523047499999983
   725   1      14.957158367867214      8.6355194100000023      1.9507682500000001
   726   1      14.957158367867214      8.6355194100000023      5.8523047499999983
   727   1      14.244912717057192      7.4018737800000007      1.9507682500000001
   728   1      15.669404018677229      7.4018737800000007      5.8523047499999983
   729   1      12.820421458171896      7.4018737800000016      9.7538412500000007
   730   1      12.820421458171896      7.4018737800000016             13.65537775
   731   1      16.381649626752509      8.6355194100000006      9.7538412500000007
   732   1      13.532667108981915      8.6355194100000023             13.65537775
   733   1      14.957158367867214      8.6355194100000023      9.7538412500000007
   734   1      14.957158367867214      8.6355194100000023             13.65537775
   735   1      14.244912717057192      7.4018737800000007      9.7538412500000007
   736   1      15.669404018677229      7.4018737800000007             13.65537775
   737   1      12.820421458171896      7.4018737800000016      17.556914250000002
   738   1      12.820421458171896      7.4018737800000016      21.458450749999997
   739   1      16.381649626752509      8.6355194100000006      17.556914250000002
   740   1      13.532667108981915      8.6355194100000023      21.458450749999997
   741   1      14.957158367867214      8.6355194100000023      17.556914250000002
   742   1      14.957158367867214      8.6355194100000023      21.458450749999997
   743   1      14.244912717057192      7.4018737800000007      17.556914250000002
   744   1      15.669404018677229      7.4018737800000007      21.458450749999997
   745   1      12.820421458171896      7.4018737800000016             25.35998725
   746   1      12.820421458171896      7.4018737800000016      29.261523749999999
   747   1      16.381649626752509      8.6355194100000006             25.35998725
   748   1      13.532667108981915      8.6355194100000023      29.261523749999999
   749   1      14.957158367867214      8.6355194100000023             25.35998725
   750   1      14.957158367867214      8.6355194100000023      29.261523749999999
   751   1      14.244912717057192      7.4018737800000007             25.35998725
   752   1      15.669404018677229      7.4018737800000007      29.261523749999999
   753   1      12.820421458171896      7.4018737800000016      33.163060250000001
   754   1      12.820421458171896      7.4018737800000016             37.06459675
   755   1      16.381649626752509      8.6355194100000006      33.163060250000001
   756   1      13.532667108981915      8.6355194100000023             37.06459675
   757   1      14.957158367867214      8.6355194100000023      33.163060250000001
   758   1      14.957158367867214      8.6355194100000023             37.06459675
   759   1      14.244912717057192      7.4018737800000007      33.163060250000001
   760   1      15.669404018677229      7.4018737800000007             37.06459675
   761   1      12.820421458171895      9.8691650400000022      1.9507682500000001
   762   1      12.820421458171895      9.8691650400000022      5.8523047499999983
   763   1      16.381649626752509      11.102810670000002      1.9507682500000001
   764   1      13.532667108981911      11.102810670000002      5.8523047499999983
   765   1       14.95715836786721      11.102810670000002      1.9507682500000001
   766   1       14.95715836786721      11.102810670000002      5.8523047499999983
   767   1      14.244912717057193      9.8691650400000022      1.9507682500000001
   768   1      15.669404018677231      9.8691650400000022      5.8523047499999983
   769   1      12.820421458171895      9.8691650400000022      9.7538412500000007
   770   1      12.820421458171895      9.8691650400000022             13.65537775
   771   1      16.381649626752509      11.102810670000002      9.7538412500000007
   772   1      13.532667108981911      11.102810670000002             13.65537775
   773   1       14.95715836786721      11.102810670000002      9.7538412500000007
   774   1       14.95715836786721      11.102810670000002             13.65537775
   775   1      14.244912717057193      9.8691650400000022      9.7538412500000007
   776   1      15.669404018677231      9.8691650400000022             13.65537775
   777   1      12.820421458171895      9.8691650400000022      17.556914250000002
   778   1      12.820421458171895      9.8691650400000022      21.458450749999997
   779   1      16.381649626752509      11.102810670000002      17.556914250000002
   780   1      13.532667108981911      11.102810670000002      21.458450749999997
   781   1       14.95715836786721      11.102810670000002      17.556914250000002
   782   1       14.95715836786721      11.102810670000002      21.458450749999997
   783   1      14.244912717057193      9.8691650400000022      17.556914250000002
   784   1      15.669404018677231      9.8691650400000022      21.458450749999997
   785   1      12.820421458171895      9.8691650400000022             25.35998725
   786   1      12.820421458171895      9.8691650400000022      29.261523749999999
   787   1      16.381649626752509      11.102810670000002             25.35998725
   788   1      13.532667108981911      11.102810670000002      29.261523749999999
   789   1       14.95715836786721      11.102810670000002             25.35998725
   790   1       14.95715836786721      11.102810670000002      29.261523749999999
   791   1      14.244912717057193      9.8691650400000022             25.35998725
   792   1      15.669404018677231      9.8691650400000022      29.261523749999999
   793   1      12.820421458171895      9.8691650400000022      33.163060250000001
   794   1      12.820421458171895      9.8691650400000022             37.06459675
   795   1      16.381649626752509      11.102810670000002      33.163060250000001
   796   1      13.532667108981911      11.102810670000002             37.06459675
   797   1       14.95715836786721      11.102810670000002      33.163060250000001
   798   1       14.95715836786721      11.102810670000002             37.06459675
   799   1      14.244912717057193      9.8691650400000022      33.163060250000001
   800   1      15.669404018677231      9.8691650400000022             37.06459675
   801   1      17.093895277562531 -3.0640700172410632e-16      1.9507682500000001
   802   1      17.093895277562531 -3.0640700172410632e-16      5.8523047499999983
   803   1      20.655123446143143      1.2336456300000005      1.9507682500000001
   804   1      17.806140928372546      1.2336456299999994      5.8523047499999983
   805   1      19.230632187257847      1.2336456299999996      1.9507682500000001
   806   1      19.230632187257847      1.2336456299999996      5.8523047499999983
   807   1      18.518386536447828  6.3649635640236617e-16      1.9507682500000001
   808   1      19.942877838067865  2.7195471139859551e-16      5.8523047499999983
   809   1      17.093895277562531 -3.0640700172410632e-16      9.7538412500000007
   810   1      17.093895277562531 -3.0640700172410632e-16             13.65537775
   811   1      20.655123446143143      1.2336456300000005      9.7538412500000007
   812   1      17.806140928372546      1.2336456299999994             13.65537775
   813   1      19.230632187257847      1.2336456299999996      9.7538412500000007
   814   1      19.230632187257847      1.2336456299999996             13.65537775
   815   1      18.518386536447828  6.3649635640236617e-16      9.7538412500000007
   816   1      19.942877838067865  2.7195471139859551e-16             13.65537775
   817   1      17.093895277562531 -3.0640700172410632e-16      17.556914250000002
   818   1      17.093895277562531 -3.0640700172410632e-16      21.458450749999997
   819   1      20.655123446143143      1.2336456300000005      17.556914250000002
   820   1      17.806140928372546      1.2336456299999994      21.458450749999997
   821   1      19.230632187257847      1.2336456299999996      17.556914250000002
   822   1      19.230632187257847      1.2336456299999996      21.458450749999997
   823   1      18.518386536447828  6.3649635640236617e-16      17.556914250000002
   824   1      19.942877838067865  2.7195471139859551e-16      21.458450749999997
   825   1      17.093895277562531 -3.0640700172410632e-16             25.35998725
   826   1      17.093895277562531 -3.0640700172410632e-16      29.261523749999999
   827   1      20.655123446143143      1.2336456300000005             25.35998725
   828   1      17.806140928372546      1.2336456299999994      29.261523749999999
   829   1      19.230632187257847      1.2336456299999996             25.35998725
   830   1      19.230632187257847      1.2336456299999996      29.261523749999999
   831   1      18.518386536447828  6.3649635640236617e-16             25.35998725
   832   1      19.942877838067865  2.7195471139859551e-16      29.261523749999999
   833   1      17.093895277562531 -3.0640700172410632e-16      33.163060250000001
   834   1      17.093895277562531 -3.0640700172410632e-16             37.06459675
   835   1      20.655123446143143      1.2336456300000005      33.163060250000001
   836   1      17.806140928372546      1.2336456299999994             37.06459675
   837   1      19.230632187257847      1.2336456299999996      33.163060250000001
   838   1      19.230632187257847      1.2336456299999996             37.06459675
   839   1      18.518386536447828  6.3649635640236617e-16      33.163060250000001
   840   1      19.942877838067865  2.7195471139859551e-16             37.06459675
   841   1      17.093895277562531       2.467291260000001      1.9507682500000001
   842   1      17.093895277562531       2.467291260000001      5.8523047499999983
   843   1      20.655123446143143      3.7009368900000017      1.9507682500000001
   844   1      17.806140928372546      3.7009368900000008      5.8523047499999983
   845   1      19.230632187257847      3.7009368900000008      1.9507682500000001
   846   1      19.230632187257847      3.7009368900000008      5.8523047499999983
   847   1      18.518386536447828      2.4672912600000014      1.9507682500000001
   848   1      19.942877838067865      2.4672912600000019      5.8523047499999983
   849   1      17.093895277562531       2.467291260000001      9.7538412500000007
   850   1      17.093895277562531       2.467291260000001             13.65537775
   851   1      20.655123446143143      3.7009368900000017      9.7538412500000007
   852   1      17.806140928372546      3.7009368900000008             13.65537775
   853   1      19.230632187257847      3.7009368900000008      9.7538412500000007
   854   1      19.230632187257847      3.7009368900000008             13.65537775
   855   1      18.518386536447828      2.4672912600000014      9.7538412500000007
   856   1      19.942877838067865      2.4672912600000019             13.65537775
   857   1      17.093895277562531       2.467291260000001      17.556914250000002
   858   1      17.093895277562531       2.467291260000001      21.458450749999997
   859   1      20.655123446143143      3.7009368900000017      17.556914250000002
   860   1      17.806140928372546      3.7009368900000008      21.458450749999997
   861   1      19.230632187257847      3.7009368900000008      17.556914250000002
   862   1      19.230632187257847      3.7009368900000008      21.458450749999997
   863   1      18.518386536447828      2.4672912600000014      17.556914250000002
   864   1      19.942877838067865      2.4672912600000019      21.458450749999997
   865   1      17.093895277562531       2.467291260000001             25.35998725
   866   1      17.093895277562531       2.467291260000001      29.261523749999999
   867   1      20.655123446143143      3.7009368900000017             25.35998725
   868   1      17.806140928372546      3.7009368900000008      29.261523749999999
   869   1      19.230632187257847      3.7009368900000008             25.35998725
   870   1      19.230632187257847      3.7009368900000008      29.261523749999999
   871   1      18.518386536447828      2.4672912600000014             25.35998725
   872   1      19.942877838067865      2.4672912600000019      29.261523749999999
   873   1      17.093895277562531       2.467291260000001      33.163060250000001
   874   1      17.093895277562531       2.467291260000001             37.06459675
   875   1      20.655123446143143      3.7009368900000017      33.163060250000001
   876   1      17.806140928372546      3.7009368900000008             37.06459675
   877   1      19.230632187257847      3.7009368900000008      33.163060250000001
   878   1      19.230632187257847      3.7009368900000008             37.06459675
   879   1      18.518386536447828      2.4672912600000014      33.163060250000001
   880   1      19.942877838067865      2.4672912600000019             37.06459675
   881   1      17.093895277562527      4.9345825200000002      1.9507682500000001
   882   1      17.093895277562527      4.9345825200000002      5.8523047499999983
   883   1      20.655123446143143              6.16822815      1.9507682500000001
   884   1      17.806140928372542      6.1682281499999991      5.8523047499999983
   885   1      19.230632187257843              6.16822815      1.9507682500000001
   886   1      19.230632187257843              6.16822815      5.8523047499999983
   887   1      18.518386536447828      4.9345825200000002      1.9507682500000001
   888   1      19.942877838067865      4.9345825200000002      5.8523047499999983
   889   1      17.093895277562527      4.9345825200000002      9.7538412500000007
   890   1      17.093895277562527      4.9345825200000002             13.65537775
   891   1      20.655123446143143              6.16822815      9.7538412500000007
   892   1      17.806140928372542      6.1682281499999991             13.65537775
   893   1      19.230632187257843              6.16822815      9.7538412500000007
   894   1      19.230632187257843              6.16822815             13.65537775
   895   1      18.518386536447828      4.9345825200000002      9.7538412500000007
   896   1      19.942877838067865      4.9345825200000002             13.65537775
   897   1      17.093895277562527      4.9345825200000002      17.556914250000002
   898   1      17.093895277562527      4.9345825200000002      21.458450749999997
   899   1      20.655123446143143              6.16822815      17.556914250000002
   900   1      17.806140928372542      6.1682281499999991      21.458450749999997
   901   1      19.230632187257843              6.16822815      17.556914250000002
   902   1      19.230632187257843              6.16822815      21.458450749999997
   903   1      18.518386536447828      4.9345825200000002      17.556914250000002
   904   1      19.942877838067865      4.9345825200000002      21.458450749999997
   905   1      17.093895277562527      4.9345825200000002             25.35998725
   906   1      17.093895277562527      4.9345825200000002      29.261523749999999
   907   1      20.655123446143143              6.16822815             25.35998725
   908   1      17.806140928372542      6.1682281499999991      29.261523749999999
   909   1      19.230632187257843              6.16822815             25.35998725
   910   1      19.230632187257843              6.16822815      29.261523749999999
   911   1      18.518386536447828      4.9345825200000002             25.35998725
   912   1      19.942877838067865      4.9345825200000002      29.261523749999999
   913   1      17.093895277562527      4.9345825200000002      33.163060250000001
   914   1      17.093895277562527      4.9345825200000002             37.06459675
   915   1      20.655123446143143              6.16822815      33.163060250000001
   916   1      17.806140928372542      6.1682281499999991             37.06459675
   917   1      19.230632187257843              6.16822815      33.163060250000001
   918   1      19.230632187257843              6.16822815             37.06459675
   919   1      18.518386536447828      4.9345825200000002      33.163060250000001
   920   1      19.942877838067865      4.9345825200000002             37.06459675
   921   1      17.093895277562527      7.4018737800000007      1.9507682500000001
   922   1      17.093895277562527      7.4018737800000007      5.8523047499999983
   923   1       20.65512344614314      8.6355194100000006      1.9507682500000001
   924   1      17.806140928372546      8.6355194100000006      5.8523047499999983
   925   1      19.230632187257843      8.6355194100000006      1.9507682500000001
   926   1      19.230632187257843      8.6355194100000006      5.8523047499999983
   927   1      18.518386536447824      7.4018737800000007      1.9507682500000001
   928   1      19.942877838067862      7.4018737800000007      5.8523047499999983
   929   1      17.093895277562527      7.4018737800000007      9.7538412500000007
   930   1      17.093895277562527      7.4018737800000007             13.65537775
   931   1       20.65512344614314      8.6355194100000006      9.7538412500000007
   932   1      17.806140928372546      8.6355194100000006             13.65537775
   933   1      19.230632187257843      8.6355194100000006      9.7538412500000007
   934   1      19.230632187257843      8.6355194100000006             13.65537775
   935   1      18.518386536447824      7.4018737800000007      9.7538412500000007
   936   1      19.942877838067862      7.4018737800000007             13.65537775
   937   1      17.093895277562527      7.4018737800000007      17.556914250000002
   938   1      17.093895277562527      7.4018737800000007      21.458450749999997
   939   1       20.65512344614314      8.6355194100000006      17.556914250000002
   940   1      17.806140928372546      8.6355194100000006      21.458450749999997
   941   1      19.230632187257843      8.6355194100000006      17.556914250000002
   942   1      19.230632187257843      8.6355194100000006      21.458450749999997
   943   1      18.518386536447824      7.4018737800000007      17.556914250000002
   944   1      19.942877838067862      7.4018737800000007      21.458450749999997
   945   1      17.093895277562527      7.4018737800000007             25.35998725
   946   1      17.093895277562527      7.4018737800000007      29.261523749999999
   947   1       20.65512344614314      8.6355194100000006             25.35998725
   948   1      17.806140928372546      8.6355194100000006      29.261523749999999
   949   1      19.230632187257843      8.6355194100000006             25.35998725
   950   1      19.230632187257843      8.6355194100000006      29.261523749999999
   951   1      18.518386536447824      7.4018737800000007             25.35998725
   952   1      19.942877838067862      7.4018737800000007      29.261523749999999
   953   1      17.093895277562527      7.4018737800000007      33.163060250000001
   954   1      17.093895277562527      7.4018737800000007             37.06459675
   955   1       20.65512344614314      8.6355194100000006      33.163060250000001
   956   1      17.806140928372546      8.6355194100000006             37.06459675
   957   1      19.230632187257843      8.6355194100000006      33.163060250000001
   958   1      19.230632187257843      8.6355194100000006             37.06459675
   959   1      18.518386536447824      7.4018737800000007      33.163060250000001
   960   1      19.942877838067862      7.4018737800000007             37.06459675
   961   1      17.093895277562527      9.8691650400000022      1.9507682500000001
   962   1      17.093895277562527      9.8691650400000022      5.8523047499999983
   963   1      20.655123446143143      11.102810670000002      1.9507682500000001
   964   1      17.806140928372546      11.102810670000002      5.8523047499999983
   965   1      19.230632187257843      11.102810670000002      1.9507682500000001
   966   1      19.230632187257843      11.102810670000002      5.8523047499999983
   967   1      18.518386536447828      9.8691650400000022      1.9507682500000001
   968   1      19.942877838067862      9.8691650400000022      5.8523047499999983
   969   1      17.093895277562527      9.8691650400000022      9.7538412500000007
   970   1      17.093895277562527      9.8691650400000022             13.65537775
   971   1      20.655123446143143      11.102810670000002      9.7538412500000007
   972   1      17.806140928372546      11.102810670000002             13.65537775
   973   1      19.230632187257843      11.102810670000002      9.7538412500000007
   974   1      19.230632187257843      11.102810670000002             13.65537775
   975   1      18.518386536447828      9.8691650400000022      9.7538412500000007
   976   1      19.942877838067862      9.8691650400000022             13.65537775
   977   1      17.093895277562527      9.8691650400000022      17.556914250000002
   978   1      17.093895277562527      9.8691650400000022      21.458450749999997
   979   1      20.655123446143143      11.102810670000002      17.556914250000002
   980   1      17.806140928372546      11.102810670000002      21.458450749999997
   981   1      19.230632187257843      11.102810670000002      17.556914250000002
   982   1      19.230632187257843      11.102810670000002      21.458450749999997
   983   1      18.518386536447828      9.8691650400000022      17.556914250000002
   984   1      19.942877838067862      9.8691650400000022      21.458450749999997
   985   1      17.093895277562527      9.8691650400000022             25.35998725
   986   1      17.093895277562527      9.8691650400000022      29.261523749999999
   987   1      20.655123446143143      11.102810670000002             25.35998725
   988   1      17.806140928372546      11.102810670000002      29.261523749999999
   989   1      19.230632187257843      11.102810670000002             25.35998725
   990   1      19.230632187257843      11.102810670000002      29.261523749999999
   991   1      18.518386536447828      9.8691650400000022             25.35998725
   992   1      19.942877838067862      9.8691650400000022      29.261523749999999
   993   1      17.093895277562527      9.8691650400000022      33.163060250000001
   994   1      17.093895277562527      9.8691650400000022             37.06459675
   995   1      20.655123446143143      11.102810670000002      33.163060250000001
   996   1      17.806140928372546      11.102810670000002             37.06459675
   997   1      19.230632187257843      11.102810670000002      33.163060250000001
   998   1      19.230632187257843      11.102810670000002             37.06459675
   999   1      18.518386536447828      9.8691650400000022      33.163060250000001
  1000   1      19.942877838067862      9.8691650400000022             37.06459675
