LAMMPS data file via write_data, version 22 Jul 2025, timestep = 200001, units = metal

512 atoms
1 atom types

0.13888751054263082 16.95500776701747 xlo xhi
0.07047519912001654 9.798689840880385 ylo yhi
7.5575618780258065 23.654730121975447 zlo zhi

Masses

1 12.01099999691024

Atoms # atomic

5 1 2.231375832660452 0.35652087248146647 8.345736179424273 0 0 0
39 1 1.5738530960879402 1.5325491387383305 8.332403538866307 0 0 0
3 1 3.617146393313468 0.34458507194166177 8.690043976188509 0 0 0
161 1 4.368037067123079 1.540279334350275 8.585002225076467 0 0 0
133 1 6.441998199197055 0.3448344231434866 8.678618066956862 0 0 0
167 1 5.692080639848108 1.586408437560948 8.553161431691757 0 0 0
131 1 7.841715727924606 0.3753438366531667 8.782867340859621 0 0 0
289 1 8.60773270682402 1.5813729406337758 8.628386570370244 0 0 0
261 1 10.619119472744359 0.28414310636038276 8.628068032779856 0 0 0
295 1 9.848448120679683 1.611939692834405 8.528404426205134 0 0 0
417 1 12.64853851963278 1.5457990458444315 8.735073247508971 0 0 0
259 1 11.991808753540278 0.2843322491228303 8.467137348698946 0 0 0
423 1 14.090031471508293 1.5431341669863936 8.605634530351521 0 0 0
389 1 14.731691880372148 0.2722512901486009 8.52598369500262 0 0 0
33 1 16.901044332801078 1.5186527783287276 8.449319356479087 -1 0 0
387 1 16.133776071342552 0.28140182908413514 8.273598209185439 0 0 0
37 1 2.2890683985954383 2.750951534733159 8.384250051068731 0 0 0
71 1 1.5730918284217092 3.983931141019856 8.373872101945118 0 0 0
35 1 3.6561963506897004 2.698360668620312 8.628286629772525 0 0 0
193 1 4.397361071618726 3.9967137660333467 8.701959040469553 0 0 0
165 1 6.449103453944915 2.789712073808697 8.588222818554437 0 0 0
199 1 5.7846802393153745 4.028075731506867 8.688651087532829 0 0 0
163 1 7.8145025880055 2.778179396530395 8.760812427087856 0 0 0
321 1 8.565706962589811 4.008738501454974 8.8730625148641 0 0 0
293 1 10.571138564503388 2.793153427698062 8.609742781692738 0 0 0
327 1 9.945652825591203 4.0401053423872035 8.67137500966836 0 0 0
449 1 12.647724942760014 3.951128658711029 8.686764940265503 0 0 0
291 1 11.954224249489654 2.7261521811939686 8.639139062304826 0 0 0
455 1 14.04384005406005 3.934379455563466 8.502104579993201 0 0 0
421 1 14.789532960994718 2.7846696320420703 8.529100197395133 0 0 0
65 1 0.1537365365670169 3.921927698123453 8.389740399607867 0 0 0
419 1 16.23601245760228 2.775850623926252 8.270178980542257 0 0 0
69 1 2.317713508264258 5.130470924024446 8.469747111706816 0 0 0
103 1 1.5278223449146149 6.326113401429153 8.34898494959309 0 0 0
225 1 4.388720606335303 6.455193906671312 8.672980761456886 0 0 0
67 1 3.6856055195804727 5.164843727670408 8.60491065926902 0 0 0
197 1 6.510055055224467 5.282999871505808 8.865236638540383 0 0 0
231 1 5.760910153257106 6.438935834087063 8.669186465406016 0 0 0
195 1 7.847938650442077 5.2614665400099065 8.74850504398403 0 0 0
353 1 8.538557860176395 6.362055671970951 8.717339851984049 0 0 0
325 1 10.729772402177415 5.161956839611288 8.919471487243495 0 0 0
359 1 9.945808277928561 6.3424450474251035 8.785702554343061 0 0 0
323 1 12.044875621550572 5.190918699990096 8.550751757473654 0 0 0
481 1 12.695790185116588 6.404588197596273 8.589307172255394 0 0 0
487 1 14.11891013312692 6.396320422206916 8.557331797998 0 0 0
453 1 14.796345833089285 5.125317108027523 8.53412249628201 0 0 0
97 1 0.14071150446078917 6.39527138212885 8.491805460812 0 0 0
451 1 16.18278826298151 5.062433631000796 8.406675711837304 0 0 0
7 1 1.515138443636441 8.864796876081662 8.250309716265049 0 -1 0
101 1 2.2119089105839578 7.650549275222406 8.278536871543723 0 0 0
129 1 4.286430513167847 8.835571673358888 8.655069448724525 0 -1 0
99 1 3.6230630365191203 7.618055311043559 8.639364333906158 0 0 0
135 1 5.702645289030501 8.914393999294878 8.640345512958342 0 -1 0
229 1 6.43092405554987 7.671624221477021 8.680393677882071 0 0 0
257 1 8.529940615452615 8.840152947921005 8.80224123995843 0 -1 0
227 1 7.854648816190997 7.594875261223995 8.742510701223814 0 0 0
263 1 9.902875521433106 8.803473823409947 8.605917609476412 0 -1 0
357 1 10.640968053472404 7.589177994807479 8.839165905390981 0 0 0
355 1 11.934080692890365 7.555002570032027 8.62140308103604 0 0 0
385 1 12.667605760691236 8.788807145390715 8.590721059072774 0 -1 0
391 1 14.086233531130208 8.731290054824298 8.459949310120471 0 -1 0
485 1 14.834650205298823 7.618699574273242 8.624192229271854 0 0 0
1 1 16.898880310422033 8.847238267180927 8.365137772545575 -1 -1 0
483 1 16.18153086353602 7.623275362964106 8.31808675779576 0 0 0
38 1 1.4919889098228183 2.3475571564658093 10.317298488199548 0 0 0
40 1 2.1298497704367856 1.1445530282088952 10.305920768872507 0 0 0
162 1 3.488783736889965 1.026364013333143 10.659899986495734 0 0 0
164 1 4.174471792724594 2.2844608242420437 10.730493081661722 0 0 0
168 1 6.324285699338245 1.1503850634098443 10.685418509508768 0 0 0
166 1 5.619321072541559 2.3281730878632882 10.583611055915505 0 0 0
290 1 7.677590860565884 1.1117136937146463 10.782096831775103 0 0 0
296 1 10.457391590633522 1.1742286332009308 10.774573315686823 0 0 0
294 1 9.745020248555607 2.369124511784562 10.655700690936417 0 0 0
418 1 11.850091128562832 1.1225889359900303 10.661378264675687 0 0 0
420 1 12.498592555908042 2.370742715203548 10.691387043204113 0 0 0
388 1 12.580502446794934 9.737569287221676 10.51658648441448 0 -1 0
422 1 13.945995434177789 2.4050083636837556 10.564426792628092 0 0 0
424 1 14.657548889002115 1.2033217812204293 10.605250520580075 0 0 0
36 1 16.87889111676413 2.4019195735580383 10.412799849981823 -1 0 0
34 1 16.058821736996837 1.241399331433482 10.388268173610093 -1 0 0
70 1 1.297383682707895 4.835254506275479 10.408913560021917 0 0 0
72 1 2.164652942587845 3.5555979694547304 10.375524076077088 0 0 0
194 1 3.5118827189601016 3.623134115228801 10.590926139564504 0 0 0
196 1 4.168651721975556 4.823276194753418 10.63265203928701 0 0 0
198 1 5.537104856593879 4.8023055653780125 10.60477667739525 0 0 0
200 1 6.306714070770308 3.538627137996524 10.720505778574005 0 0 0
292 1 8.388787795800324 2.3992672657290717 10.749403797630162 0 0 0
322 1 7.618934258962018 3.5741677448876423 10.856348251489557 0 0 0
324 1 8.323141857272734 4.793619139208119 10.86987223366007 0 0 0
326 1 9.684962232231548 4.810879717477717 10.681640932150735 0 0 0
328 1 10.377275895203557 3.544341456404597 10.767929225819838 0 0 0
452 1 12.55571124172362 4.864723920966701 10.795121376514075 0 0 0
450 1 11.786278497878032 3.6537883223035856 10.608911791753691 0 0 0
454 1 13.936612709473565 4.852535933119384 10.623495889946083 0 0 0
456 1 14.64199128294515 3.548145364254798 10.577334365176503 0 0 0
68 1 16.76128795833869 4.858922756820729 10.561424225834259 -1 0 0
66 1 16.015188419070096 3.5866148724568316 10.387225002315724 -1 0 0
102 1 1.4262168809876787 7.272633026776921 10.233949143365312 0 0 0
104 1 2.0974116378515726 6.061418886543576 10.442049535241756 0 0 0
226 1 3.4375436681637828 6.013312319134985 10.537975383879708 0 0 0
228 1 4.138124859489766 7.241767109406236 10.741532634812021 0 0 0
230 1 5.607905829527845 7.282663663917003 10.652184728049384 0 0 0
232 1 6.263332653198421 6.012211593186541 10.814681996301434 0 0 0
354 1 7.638086674470971 6.001272659524801 10.723120326377027 0 0 0
356 1 8.380853340586441 7.2466366497475985 10.874018805882226 0 0 0
358 1 9.715891934358405 7.239405184661583 10.715266362817342 0 0 0
360 1 10.37794786944912 6.007386077353878 10.800435164335124 0 0 0
484 1 12.601898400990498 7.288539209853279 10.607041456290847 0 0 0
482 1 11.857015552240851 6.046405861078065 10.492990408838796 0 0 0
486 1 13.898165953246696 7.279533339062861 10.518095212285761 0 0 0
488 1 14.653385104182833 6.067115321087796 10.620199274646177 0 0 0
100 1 16.793822002125758 7.2382835545653625 10.439023894157522 -1 0 0
98 1 16.06506366507854 6.051778167846588 10.676445295626023 -1 0 0
6 1 1.380877850314003 9.711255063967991 10.239233686637565 0 -1 0
8 1 2.1044420750396227 8.514403226003546 10.357741608277781 0 -1 0
130 1 3.4778041481919 8.482744391208149 10.666835064798331 0 -1 0
132 1 4.189121026709479 9.65731633219892 10.671168714538384 0 -1 0
134 1 5.590907231618144 9.716463906526972 10.624029170030145 0 -1 0
136 1 6.314225969976819 8.491416848559231 10.63329398220993 0 -1 0
258 1 7.648780710436914 8.476078664667781 10.703113426120321 0 -1 0
260 1 8.322321038064354 9.599162057274444 10.84758669946263 0 -1 0
262 1 9.687515733126173 9.6591157453834 10.605718430554626 0 -1 0
264 1 10.468242624165066 8.509044570936153 10.723594908214235 0 -1 0
386 1 11.90905166594493 8.50972957235871 10.538605707160402 0 -1 0
390 1 13.965169554016722 9.733285438396104 10.474192020590916 0 -1 0
392 1 14.70243038400708 8.477093332658452 10.551898800746427 0 -1 0
4 1 16.746824558621164 9.69765517302331 10.25722938811437 -1 -1 0
2 1 16.079591706416018 8.439842500817692 10.361430334511894 -1 -1 0
13 1 1.6541146148889976 2.0215019906596314 12.455500697233393 0 0 0
15 1 1.079880607865828 0.7232939978055707 12.220308598995214 0 0 0
10 1 0.4663398372802902 1.6835077705075414 14.29814864816466 0 0 0
11 1 3.101597825223278 2.0269269509222765 12.569473211878833 0 0 0
137 1 3.792235871015369 0.9146104663185606 12.706398419937225 0 0 0
141 1 5.854384244760895 2.0043679226039863 12.659954169996517 0 0 0
143 1 5.166289424465657 0.8441936350818964 12.525303522604693 0 0 0
139 1 7.25656166390389 1.995221701744027 12.804347672164614 0 0 0
265 1 7.99732090918196 0.7647615334366119 12.828054719982244 0 0 0
271 1 9.435527135033094 0.7648505370275986 12.6060140131751 0 0 0
269 1 10.039807208888071 2.0600318290526967 12.76755345397682 0 0 0
393 1 12.18836507873783 0.792409153104622 12.71006040370194 0 0 0
267 1 11.455258165399515 2.0525079967900433 12.672045487456892 0 0 0
397 1 14.265744921035004 1.9779323165297178 12.660374509667523 0 0 0
399 1 13.576111429347645 0.8038843007458979 12.561640685450538 0 0 0
9 1 16.356559201564917 0.7574553097070328 12.40049175253771 -1 0 0
395 1 15.680849519821164 1.9980452628265932 12.377338551286384 0 0 0
45 1 1.6635468183157456 4.365304101990439 12.491750410057247 0 0 0
47 1 0.9651468124726627 3.247862740725112 12.273745436946216 0 0 0
43 1 3.0666456554850328 4.455176135732741 12.503410426884368 0 0 0
169 1 3.84367644866101 3.1823248939877145 12.628193301614422 0 0 0
173 1 5.88558954458445 4.414577228742434 12.66604143271423 0 0 0
175 1 5.219279522306289 3.2089167293545677 12.557835280173705 0 0 0
297 1 7.987441086020428 3.270960363737849 12.920491248929489 0 0 0
171 1 7.230379116485631 4.442186211021863 12.781934766902335 0 0 0
303 1 9.370449662166859 3.253752713188678 12.699148673315984 0 0 0
301 1 10.016811989205726 4.4084121420059335 12.75025356046265 0 0 0
425 1 12.226368930437973 3.288909453557821 12.706086783915902 0 0 0
299 1 11.438323385380833 4.478773030869043 12.776957356008001 0 0 0
431 1 13.595525575619021 3.2532020852312176 12.512085936251392 0 0 0
429 1 14.301680856607536 4.480614063669428 12.648094260813444 0 0 0
41 1 16.3920596830415 3.235912751000117 12.431316651346542 -1 0 0
427 1 15.724260213640264 4.443437248318276 12.509185680881746 0 0 0
77 1 1.6605870574619952 6.873777212683046 12.342662856767225 0 0 0
79 1 0.996102110103652 5.640727983094586 12.367960878073811 0 0 0
75 1 3.0561792519030204 6.8865181815424865 12.48792608247981 0 0 0
201 1 3.7374012416202755 5.725447272624245 12.624397026979716 0 0 0
205 1 5.824580547803398 6.87798346917152 12.667653444631414 0 0 0
207 1 5.132547153690762 5.65815450172119 12.532799136925716 0 0 0
203 1 7.2842527896440386 6.856802573590731 12.67355885446904 0 0 0
329 1 7.923601094342147 5.622785413678066 12.799777055970965 0 0 0
335 1 9.371289107269051 5.601209501417804 12.64972963791535 0 0 0
333 1 10.153989243626553 6.86817309031286 12.778154899017682 0 0 0
457 1 12.200160711398745 5.66952326321765 12.724455230428244 0 0 0
331 1 11.547536834719944 6.853130764191733 12.529216355190393 0 0 0
461 1 14.308373302138676 6.830323899598006 12.539176357138793 0 0 0
463 1 13.542011485969235 5.642450208291511 12.55874443898876 0 0 0
73 1 16.42732538251985 5.565893510255211 12.699525194528075 -1 0 0
459 1 15.680313317200964 6.843271541527664 12.605144439913339 0 0 0
109 1 1.6984284202445386 9.261872406741311 12.287958252314198 0 0 0
111 1 1.001790191060532 8.088468482435669 12.101153928611483 0 0 0
107 1 3.0591834421596187 9.269221357376427 12.556657006630374 0 0 0
233 1 3.721237803903626 8.057717826193013 12.753247433344157 0 0 0
78 1 2.697074966701721 7.749448539809791 14.578696600318592 0 0 0
237 1 5.8570533686211474 9.3402791336956 12.661882356927205 0 0 0
239 1 5.140410152855092 8.110816246342523 12.58469181467371 0 0 0
235 1 7.281195397907339 9.281731784834655 12.624731268581865 0 0 0
361 1 8.012846099070824 8.11606370903668 12.757736900091476 0 0 0
367 1 9.421883412843279 8.124561737605411 12.700252400763738 0 0 0
365 1 10.172921477480296 9.28879617706625 12.827433733384254 0 0 0
489 1 12.226108959088632 8.09728856130745 12.757766251937554 0 0 0
363 1 11.470440948478789 9.311324585899952 12.653400345338259 0 0 0
493 1 14.28786813193398 9.268326666830973 12.575947170295636 0 0 0
495 1 13.619637408397091 8.13549172290585 12.54540784788492 0 0 0
105 1 16.329536049342387 8.04406657314551 12.514232593845263 -1 0 0
491 1 15.621222801859881 9.28706801417548 12.393063932851003 0 0 0
108 1 1.22692394462589 0.48502278462771375 14.27559460933135 0 1 0
17 1 1.0533259569728723 1.392835894811749 16.498905634176417 0 0 0
499 1 0.32266242829447767 0.11221019118261075 16.25811017156333 1 1 0
16 1 3.310197488665838 1.6308542841281024 14.641593521786387 0 0 0
110 1 2.6628488365668823 0.43260375824823394 14.518858128732328 0 1 0
23 1 2.486575414078783 1.3165608962239141 16.548674401456207 0 0 0
117 1 3.1646430640548524 0.12768527139360172 16.54326212779906 0 1 0
138 1 4.738968933293531 1.6732125464169199 14.483456211231271 0 0 0
236 1 5.43929304728809 0.47385221749298667 14.552951836992172 0 1 0
115 1 4.526680654128438 0.22627689895458217 16.548339770182288 0 1 0
145 1 5.151810743821263 1.394998091464885 16.575370978628875 0 0 0
144 1 7.556337102459162 1.7051927703378948 14.861823665856686 0 0 0
238 1 6.90541791833068 0.5426865911766794 14.773784641173918 0 1 0
151 1 6.6796582042557775 1.3479916393779003 16.826337227385743 0 0 0
245 1 7.339731560559273 0.1535709147449974 16.818508485822285 0 1 0
266 1 9.055764496809227 1.6663992808566728 14.741337826708175 0 0 0
243 1 8.749536674854154 0.14550322468179605 16.747733570202733 0 1 0
364 1 9.724361063133216 0.4653895065449507 14.749267041033423 0 1 0
273 1 9.476354867895573 1.4461984741361256 16.793613443084695 0 0 0
272 1 11.829222162029065 1.6972715557173457 14.775855715325568 0 0 0
366 1 11.098660660096447 0.4758863591039947 14.5275545885168 0 1 0
279 1 10.866263225482635 1.3588650092411114 16.68172382534293 0 0 0
394 1 13.205626469586056 1.7091672350650997 14.453521759770318 0 0 0
492 1 13.857162483286679 0.5146821529660263 14.671025229645428 0 1 0
371 1 13.025596096882124 0.12055353004216215 16.685211291118037 0 1 0
400 1 15.932382408865726 1.6519474960834566 14.486089420600484 0 0 0
494 1 15.247613163635833 0.5072087438616723 14.534880589877009 0 1 0
407 1 15.160722880011681 1.3930359373152463 16.434725125129 0 0 0
12 1 1.2261067857613595 2.8413039362424577 14.351016462580937 0 0 0
42 1 0.49898682489741236 4.032771698840253 14.305885472848043 0 0 0
49 1 1.0585290587158733 3.8489734038184475 16.424972885932295 0 0 0
403 1 0.33145885242666073 2.6058083998187804 16.42774232698784 1 0 0
14 1 2.7147529009960514 2.874201468470348 14.531868248173863 0 0 0
48 1 3.404272808767255 4.13661117881067 14.52811414794325 0 0 0
55 1 2.391327248047815 3.81838368241634 16.522441630545583 0 0 0
21 1 3.1675301468467847 2.5477437506317093 16.566087555101635 0 0 0
140 1 5.4846429786098065 2.894314691497054 14.663392860519348 0 0 0
170 1 4.809997186552517 4.09401690541376 14.571603249897557 0 0 0
19 1 4.558240879247796 2.554535616022214 16.680519702504917 0 0 0
177 1 5.272682150075671 3.81499037403629 16.640455803660313 0 0 0
142 1 6.881709344964429 2.8753781169611807 14.80779947475737 0 0 0
176 1 7.580357043290935 4.10183784994317 14.884165035976881 0 0 0
149 1 7.483420090569703 2.6113021153539164 16.8024256349379 0 0 0
183 1 6.665558589343894 3.7355746582548073 16.745676282878406 0 0 0
268 1 9.713098080462297 2.8305241836624506 14.729988911059053 0 0 0
298 1 8.984673967701623 4.083446747946554 14.755477988235922 0 0 0
147 1 8.781737247952373 2.556508868631898 16.59445257599672 0 0 0
270 1 11.126269482842098 2.8870555714774158 14.74969875105068 0 0 0
304 1 11.871197088606172 4.104529118913421 14.822391262617824 0 0 0
277 1 11.649224971308774 2.5825896627021097 16.825631921114898 0 0 0
311 1 10.89676263674178 3.8399835496122248 16.71151104844333 0 0 0
396 1 13.859358238537913 2.9235711713971027 14.565866879065268 0 0 0
426 1 13.194761059037711 4.15061524419681 14.599781779114332 0 0 0
275 1 13.00644812833329 2.620248553239542 16.712570814925094 0 0 0
433 1 13.683100909957691 3.8450922141227832 16.61784708919736 0 0 0
398 1 15.220946349162569 2.970138519292309 14.435580836266052 0 0 0
432 1 15.990972461010971 4.097437820073889 14.596527214994724 0 0 0
439 1 15.077742264599065 3.79187819704365 16.501736784375193 0 0 0
44 1 1.302988790850707 5.264131497449116 14.462451645156928 0 0 0
74 1 0.613068442486338 6.521990295973983 14.305263182156692 0 0 0
81 1 1.04363821934985 6.248139082261691 16.335775952184143 0 0 0
435 1 0.35212832077357137 5.060867260909154 16.327065609095087 1 0 0
46 1 2.6616715248041047 5.396105883824712 14.493022445486913 0 0 0
80 1 3.3765947587095035 6.533593110217269 14.601474153371914 0 0 0
87 1 2.4670720491649276 6.213163982395072 16.48482492211752 0 0 0
53 1 3.1739598183508373 5.068690494371624 16.508699865817576 0 0 0
172 1 5.511930389631644 5.299424803751855 14.688824116261522 0 0 0
202 1 4.803733780241258 6.5257071719850925 14.579825485720185 0 0 0
51 1 4.5851350645903555 5.058754619877809 16.570740243883407 0 0 0
209 1 5.346687070252086 6.295471530463502 16.59959636259961 0 0 0
174 1 6.911459794044839 5.328009704342007 14.697358442972305 0 0 0
208 1 7.6438371071567985 6.4873924680515715 14.791095658875692 0 0 0
181 1 7.449765643481653 4.998136383860134 16.833972274072387 0 0 0
215 1 6.696276197262171 6.29112640413218 16.760746545045777 0 0 0
300 1 9.71771298143325 5.3299654343401235 14.744524247059424 0 0 0
330 1 9.019796938109693 6.521227195505342 14.739547378971459 0 0 0
179 1 8.809747188442909 5.004234653030365 16.65680291206663 0 0 0
337 1 9.594005608735415 6.26817128162052 16.803152226267407 0 0 0
302 1 11.076283180773885 5.3111270026729684 14.664511764548438 0 0 0
336 1 11.765478750290029 6.543388580907013 14.67164126962276 0 0 0
309 1 11.637733884050492 5.027326793768231 16.705730792114093 0 0 0
343 1 10.962832845292787 6.28925090177021 16.678956464284408 0 0 0
428 1 13.896645143562568 5.325641293762434 14.5988525111439 0 0 0
458 1 13.164500903518535 6.599247043608626 14.553860153199793 0 0 0
307 1 13.003178384202212 5.050870150884914 16.538185791607045 0 0 0
465 1 13.710026746620564 6.248741315112266 16.681786758340444 0 0 0
430 1 15.315261759288012 5.340153585150825 14.485396276078951 0 0 0
464 1 16.064341260323012 6.546836469701754 14.643526709700716 0 0 0
437 1 15.786636765640782 5.054578512878549 16.551125254517416 0 0 0
471 1 15.146958574020157 6.2201877339623035 16.58906707309444 0 0 0
76 1 1.2912002773698887 7.741527973982821 14.295452409969977 0 0 0
106 1 0.5045083548858187 9.003826572225739 14.302202002447046 0 0 0
113 1 1.0815635597636728 8.570214637010498 16.328571284996713 0 0 0
467 1 0.45174667002731334 7.404899597271898 16.271796725237373 1 0 0
112 1 3.3989588787687484 8.929769417537877 14.617037271873574 0 0 0
119 1 2.463955418253161 8.62127391552235 16.496627036254345 0 0 0
85 1 3.221219542765389 7.420748098470839 16.611520190119105 0 0 0
204 1 5.501881980646164 7.719468381011355 14.61573210976989 0 0 0
234 1 4.804793376276332 8.949994541005646 14.512780435489914 0 0 0
83 1 4.578677106613527 7.451974529704336 16.612516980684564 0 0 0
241 1 5.260393684641442 8.742085914062024 16.64226709418866 0 0 0
206 1 6.931344652928116 7.7451728886975335 14.731454690922483 0 0 0
240 1 7.6362814379085115 9.035144583485385 14.726594544819616 0 0 0
213 1 7.387929559875813 7.457215203278677 16.82862450004197 0 0 0
247 1 6.631819128275425 8.667303358348061 16.5912057651959 0 0 0
332 1 9.747076018001646 7.723090245996233 14.81229087598234 0 0 0
362 1 9.025770744774887 8.968959900983084 14.79141332236771 0 0 0
211 1 8.873972124113134 7.51907266013544 16.717876196682766 0 0 0
369 1 9.510927525973974 8.6602474470496 16.874634850091677 0 0 0
334 1 11.070287008316628 7.717576539033275 14.545967833924529 0 0 0
368 1 11.761164394853692 9.020767665979216 14.73123227840724 0 0 0
341 1 11.686126634647248 7.4025329877540385 16.61278168121033 0 0 0
375 1 10.888740926239258 8.59110273605231 16.766732498045684 0 0 0
460 1 13.930640334858207 7.783576439417424 14.6204660774341 0 0 0
490 1 13.23266812880829 8.99330248454158 14.567164500374677 0 0 0
339 1 13.04503664808227 7.382182686648031 16.530893906174484 0 0 0
497 1 13.721607626554112 8.620825776711165 16.642159535192725 0 0 0
462 1 15.335793761888258 7.806612064324574 14.458584217321047 0 0 0
496 1 15.99194915524685 9.060373519430806 14.520336385079002 0 0 0
469 1 15.821252781724885 7.447690174552988 16.566740881555585 0 0 0
503 1 15.04233468148432 8.635254891975062 16.400504784770426 0 0 0
20 1 0.8364156976147709 2.368696342760092 18.46126097468534 0 0 0
18 1 16.878899155654803 1.182956636092745 18.3190446982007 -1 0 0
22 1 2.232898969996082 2.347365322004294 18.51579764255608 0 0 0
24 1 2.9740178921069322 1.1381919662076059 18.622890545224152 0 0 0
146 1 4.372058567878431 1.1721286677386096 18.559825287974146 0 0 0
148 1 5.069047147761026 2.357437196711505 18.70172272834448 0 0 0
150 1 6.459519821423021 2.238001476999731 18.71419770124487 0 0 0
152 1 7.158373633704722 1.0311085203856944 18.796963276889546 0 0 0
274 1 8.511123947981238 1.022252238583656 18.64541111661738 0 0 0
276 1 9.209318985662906 2.2667352266785863 18.690238531175176 0 0 0
373 1 11.570819789464403 0.10637120556285459 16.65188313292912 0 1 0
278 1 10.635861099217658 2.2718611335690326 18.640985735103456 0 0 0
280 1 11.383477392445668 1.1055934634387414 18.73575841701244 0 0 0
401 1 13.720872063812436 1.352510815693338 16.720504901003068 0 0 0
404 1 13.554750299731909 2.3177318913465506 18.72736984796911 0 0 0
402 1 12.812107922814814 1.0795445627694014 18.596882634699472 0 0 0
501 1 15.744233539003629 0.11301448574149847 16.564556786243443 0 1 0
406 1 14.950406563288213 2.318539277932268 18.37232518831417 0 0 0
408 1 15.602177267016746 1.1886704839200524 18.533257376347315 0 0 0
52 1 0.9128216222416913 4.73369248050999 18.36969956659386 0 0 0
50 1 0.1799182138842872 3.5505252134803373 18.343480913625108 0 0 0
54 1 2.2753779638740417 4.74869911781249 18.451473457316595 0 0 0
56 1 2.9544512610152194 3.5015692538442873 18.509648287922495 0 0 0
178 1 4.366613205193406 3.5624017958379146 18.7457356917948 0 0 0
180 1 5.128559518342184 4.768777512418586 18.582261943306268 0 0 0
184 1 7.216365290448286 3.5526855904312344 18.740917052182052 0 0 0
182 1 6.487334469852597 4.740640021678865 18.716955379437497 0 0 0
305 1 9.513509275782058 3.743021139287124 16.71542340215701 0 0 0
306 1 8.550330250007105 3.5075680142893626 18.565403281593923 0 0 0
308 1 9.35070918490215 4.804025301398517 18.666618533086464 0 0 0
312 1 11.418182132111365 3.5322345053784296 18.700206767923785 0 0 0
310 1 10.792317434011057 4.761333713869972 18.724410698816328 0 0 0
436 1 13.466602334128712 4.744520966611421 18.603882716661193 0 0 0
434 1 12.82190413737311 3.5440647876918643 18.56598326094683 0 0 0
405 1 15.803934912544564 2.582738073063626 16.435282328345377 0 0 0
438 1 14.913155537927237 4.775610906549434 18.563176851506853 0 0 0
440 1 15.589841736398268 3.566554401410465 18.543148399462233 0 0 0
84 1 0.9107975126870111 7.224701608699145 18.467599779915584 0 0 0
82 1 0.1409236280062308 5.9783987751322 18.2668533674319 0 0 0
86 1 2.318144832738453 7.183891263747985 18.475373323724348 0 0 0
88 1 2.9707167407499764 5.975408532487472 18.52612913577513 0 0 0
210 1 4.354295219551408 5.985052182088818 18.571837420402332 0 0 0
212 1 5.081714714377934 7.184137862022432 18.61692459067936 0 0 0
214 1 6.4185411442079605 7.152538562062776 18.810711788090757 0 0 0
216 1 7.129512303020147 5.895871693062327 18.831553979980608 0 0 0
338 1 8.612999532806096 5.95404882660921 18.664307257174634 0 0 0
340 1 9.31158350389157 7.202059462787543 18.747514494529106 0 0 0
342 1 10.691802727750549 7.185174269890049 18.76532632448849 0 0 0
344 1 11.445473735981441 5.972770559545326 18.834987863221656 0 0 0
466 1 12.771568527592208 5.940717987466225 18.5764718246366 0 0 0
468 1 13.475532012390657 7.1194292921848135 18.608733715023526 0 0 0
470 1 14.844275739055979 7.160212878861184 18.491340072511953 0 0 0
472 1 15.598581373812689 5.946351134641071 18.62786364614734 0 0 0
116 1 0.8334424808705325 9.656499935545375 18.309458368313138 0 0 0
114 1 16.939869074310167 8.347299669811537 18.309142036449774 -1 0 0
118 1 2.2946761237680593 9.649328166183146 18.419325613290336 0 0 0
120 1 3.010983189833353 8.409232249294503 18.661427881979847 0 0 0
242 1 4.409887118979337 8.394150010333403 18.62243876308618 0 0 0
244 1 5.046329249572124 9.540411034421039 18.585822841273362 0 0 0
246 1 6.402404049470244 9.53907376975797 18.669815374750698 0 0 0
248 1 7.219115830199934 8.316885980239773 18.851168261448656 0 0 0
370 1 8.604830760837764 8.339451830010624 18.81518298438125 0 0 0
372 1 9.306661770605144 9.586324211760187 18.792752285549355 0 0 0
374 1 10.698453922354226 9.60527606568716 18.783051728458446 0 0 0
376 1 11.404534129721593 8.351903713197677 18.812885443980303 0 0 0
500 1 13.549202468240253 9.639857369844453 18.739441332577194 0 0 0
498 1 12.777799174997375 8.37095809911067 18.606752048032988 0 0 0
502 1 14.875827875683813 9.62252139240008 18.479695391031015 0 0 0
504 1 15.57131188369838 8.371342227294988 18.550481134147432 0 0 0
63 1 2.038969913086106 1.490922917003592 20.445650091910885 0 0 0
57 1 0.6151312887843818 1.449091939795905 20.39644903355568 0 0 0
29 1 2.73462898854686 0.2686181170396423 20.508625014886416 0 0 0
27 1 4.1643101950735515 0.21303941037603066 20.727645850867546 0 0 0
185 1 4.84635997942473 1.4811452644913523 20.656875852904165 0 0 0
191 1 6.196967383337945 1.4405085010087009 20.658386225775082 0 0 0
157 1 6.8618994870176 0.20195508706877982 20.704496869188702 0 0 0
155 1 8.291701270026133 0.24278878861155048 20.65839934840689 0 0 0
313 1 9.078351118621793 1.3958624368059043 20.709821338514985 0 0 0
319 1 10.439640090620259 1.46643725847551 20.576453129315947 0 0 0
285 1 11.129073437578104 0.26143921698005995 20.842080602362344 0 0 0
283 1 12.51018763804725 0.2769903900999805 20.52349533677549 0 0 0
441 1 13.174833725322653 1.4195196606582916 20.636518441361243 0 0 0
447 1 14.610399580040186 1.4675555273964864 20.459766795886466 0 0 0
413 1 15.300276527912915 0.18187168852950827 20.548476666643122 0 0 0
411 1 16.712992412753835 0.21589341329918554 20.272400681715634 0 0 0
95 1 2.041545984305975 3.9414673551968358 20.404019791868308 0 0 0
89 1 0.6010555362967277 3.8883216061838977 20.506746083225085 0 0 0
61 1 2.754328579500346 2.7325645680852664 20.5559603157709 0 0 0
59 1 4.1141754912335475 2.739922486436829 20.670143887509074 0 0 0
217 1 4.80047323069487 3.86559220835911 20.773890976243887 0 0 0
223 1 6.192397221817829 3.878789177255295 20.770629478330946 0 0 0
189 1 6.862809100534168 2.6521339660123675 20.72352066782652 0 0 0
187 1 8.28088980917858 2.65861487495291 20.624701265306832 0 0 0
345 1 8.98694199391625 3.844953414443347 20.613373133560145 0 0 0
351 1 10.387692711464247 3.851647581923514 20.636529624940916 0 0 0
317 1 11.102535581763782 2.691093133965266 20.78742243172198 0 0 0
315 1 12.532783960193964 2.6507096492564504 20.65349786218519 0 0 0
473 1 13.262087444286658 3.8568781616108794 20.64238311698738 0 0 0
479 1 14.655965452848577 3.8353205094365426 20.517971971584462 0 0 0
445 1 15.347947585767463 2.6672598784549404 20.641171108168752 0 0 0
443 1 16.750712039598575 2.7142424870969157 20.405169114227434 0 0 0
127 1 1.9959622098491026 6.322191151865163 20.380513222523 0 0 0
121 1 0.6165421039049516 6.35226333860396 20.33577879480452 0 0 0
93 1 2.650399018645867 5.115658430499552 20.52306253421859 0 0 0
91 1 4.0678837274162545 5.144842784274076 20.533014729232413 0 0 0
249 1 4.74283607240651 6.329330572331641 20.704293513285975 0 0 0
255 1 6.106051920394819 6.352528420037402 20.717346759092408 0 0 0
221 1 6.8272834049071465 5.126594508287156 20.805767876798704 0 0 0
219 1 8.27031255058085 5.094852810499552 20.696328454925375 0 0 0
377 1 9.044593247918204 6.2669550053489305 20.686087998197426 0 0 0
383 1 10.457406030378264 6.2329874231066436 20.67558829802693 0 0 0
349 1 11.113633419389911 5.039528529094319 20.80184515085145 0 0 0
347 1 12.566222025109253 5.064905106619242 20.541218758981316 0 0 0
505 1 13.250724419205318 6.29645225904641 20.599015600191485 0 0 0
511 1 14.69419489892239 6.3248534763601665 20.570022733153294 0 0 0
477 1 15.359321695033145 5.078008711749575 20.60809867413949 0 0 0
475 1 16.68421088217458 5.093355045391999 20.44185862110247 0 0 0
31 1 1.9912517353224273 8.77745605245991 20.458870148036524 0 -1 0
25 1 0.6462613068421162 8.710777209758293 20.405943919746605 0 -1 0
125 1 2.73300753187881 7.532947444770146 20.580765513016075 0 0 0
123 1 4.095197634359057 7.5625764253829955 20.525152491764356 0 0 0
153 1 4.807905107891654 8.72668873919711 20.876628319541528 0 -1 0
159 1 6.203993478878616 8.731114352798489 20.685364566035457 0 -1 0
253 1 6.923383111138501 7.547087364965 20.814519566865606 0 0 0
251 1 8.33523426478971 7.5405327160263305 20.911739237342953 0 0 0
281 1 9.06340073142291 8.824816508494056 20.823842403773146 0 -1 0
287 1 10.474892060763448 8.806651119401826 20.760266381324225 0 -1 0
381 1 11.16520154902548 7.529548313015776 20.987696981511824 0 0 0
379 1 12.557430316490423 7.4795450916064805 20.644424635726303 0 0 0
415 1 14.66786696195438 8.672673669607695 20.592322149931185 0 -1 0
409 1 13.283671158357393 8.68222190083549 20.621820530109048 0 -1 0
509 1 15.316397191450719 7.552515953995178 20.548447014780102 0 0 0
507 1 16.718682672853884 7.565333585221202 20.48042957073892 0 0 0
60 1 0.3687199956440749 2.403614391645243 22.490363243222074 0 0 0
62 1 1.779070003761738 2.3369197932490064 22.454168130346076 0 0 0
64 1 2.507825952593099 1.1334886781755318 22.495067620711115 0 0 0
186 1 3.905736679889379 1.1922898188902846 22.676252166779854 0 0 0
188 1 4.638412590086556 2.435873362003087 22.72195509572056 0 0 0
190 1 6.057598186935399 2.424314589025806 22.677818138840216 0 0 0
192 1 6.729430318203434 1.2382497263734578 22.707637081354605 0 0 0
314 1 8.073198482749321 1.2058612799914308 22.696063025948156 0 0 0
316 1 8.792666261621521 2.454895838728714 22.73773783246559 0 0 0
318 1 10.170065710029029 2.4301173806418355 22.688294677844617 0 0 0
320 1 10.839684950154178 1.1674728407540695 22.835069578348225 0 0 0
442 1 12.379760695992779 1.0878714931278441 22.64823585058275 0 0 0
444 1 13.060713211435488 2.370982920365333 22.764004753400897 0 0 0
446 1 14.441933668653277 2.362277167458479 22.54674982042602 0 0 0
58 1 16.507853882045122 1.1811265681104586 22.380885802707667 -1 0 0
448 1 15.103361105607215 1.1605803931843655 22.540350039027494 0 0 0
92 1 0.38529216205027184 4.835010720418352 22.469090366527148 0 0 0
94 1 1.7350342544553328 4.895704609877014 22.521092819432994 0 0 0
96 1 2.4539094523814433 3.6373197212133594 22.558012604248052 0 0 0
218 1 3.8940271687586034 3.631879388536879 22.68047692163622 0 0 0
220 1 4.572620498018975 4.836700457707537 22.72827203619491 0 0 0
222 1 5.969654294389374 4.83768047637003 22.75436278313162 0 0 0
224 1 6.733073732850745 3.681736193661568 22.81896553779932 0 0 0
346 1 8.15030389701507 3.676571734712062 22.629548544465855 0 0 0
350 1 10.22000969654272 4.812751813746479 22.79916930177063 0 0 0
348 1 8.79200644220929 4.819376482826674 22.733811815891038 0 0 0
352 1 10.863342906521746 3.625184936726273 22.71345615855279 0 0 0
474 1 12.321706913735488 3.6312675675647186 22.669521891105774 0 0 0
476 1 13.067782621164747 4.864025770584315 22.625837382280714 0 0 0
478 1 14.417435650683178 4.845254709190789 22.529824052317732 0 0 0
90 1 16.470217406175422 3.595402630099441 22.418562684446453 -1 0 0
480 1 15.130446517736083 3.56949918160101 22.56585765858997 0 0 0
124 1 0.41089622046267604 7.330599934007194 22.465904824637686 0 0 0
126 1 1.7753079105689291 7.327232786523434 22.381120826131273 0 0 0
128 1 2.489904228449823 6.170804091207606 22.563998439132398 0 0 0
250 1 3.944192115689122 6.112017799118379 22.66866968309268 0 0 0
252 1 4.696925163462157 7.370351611309574 22.606484445724583 0 0 0
254 1 6.022052530035131 7.2765660071914695 22.78645414386788 0 0 0
256 1 6.6920145719036634 6.0821758517329565 22.745085494048478 0 0 0
378 1 8.055374750010134 6.096324914194473 22.735648964613663 0 0 0
380 1 8.791514631856215 7.31317267878647 22.936361621151793 0 0 0
382 1 10.29539597719803 7.2404793066265505 22.874543358870127 0 0 0
384 1 11.012741404584123 6.025078814416476 22.748078444734777 0 0 0
506 1 12.399518311105396 6.017426862146541 22.5494867571324 0 0 0
508 1 13.10665525682473 7.219612224788223 22.682421294740365 0 0 0
510 1 14.542636262999494 7.303366065470237 22.66147800900282 0 0 0
122 1 16.578195039266824 6.040663580302763 22.337056954799543 -1 0 0
512 1 15.223863457600846 6.01572322820744 22.652815019169267 0 0 0
28 1 0.44601888152057295 9.756649025573658 22.345842369626297 0 -1 0
30 1 1.8282443215393773 9.675468635624778 22.378543143810468 0 -1 0
32 1 2.509658636127844 8.555647962321071 22.51689099518749 0 -1 0
154 1 3.8871971745953373 8.537819193194048 22.73634265871052 0 -1 0
156 1 4.64137554167792 9.772482635647876 22.79366589701504 0 -1 0
158 1 5.994987026703944 9.716717092009896 22.726872900489838 0 -1 0
160 1 6.702874715351193 8.490011090121799 22.693421551935927 0 -1 0
282 1 8.081786679185594 8.494774749456674 22.88064225987541 0 -1 0
286 1 10.160107288725905 9.760961247582804 22.705802419442264 0 -1 0
284 1 8.837678523938516 9.725488215025184 22.921587628598232 0 -1 0
288 1 10.969431697556232 8.476059533653753 22.860000576796633 0 -1 0
410 1 12.378603710823628 8.440166839638698 22.541298380950636 0 -1 0
412 1 13.084685360662192 9.636183732104614 22.491502022045335 0 -1 0
414 1 14.446247517729155 9.679564251848403 22.45690163471968 0 -1 0
26 1 16.538431951301217 8.539594230721267 22.3891510167425 -1 -1 0
416 1 15.186614997977458 8.511977867751249 22.686967451641287 0 -1 0

Velocities

5 7.686936722266732 4.778953385534404 -1.83652217458421
39 -1.4877047739126308 17.07438669940403 11.416800292858696
3 -0.7384765191365639 8.877106385442927 4.173474664541771
161 1.5225801119193891 -6.035614453100334 -1.0723511880610357
133 11.019129831383644 0.7345715566951357 11.354000231261049
167 11.732972275192486 16.5072917429926 -0.05415015607386505
131 -10.392911184772023 12.342222767888789 -19.644861128170803
289 -3.4286757573778854 -9.995133408171817 11.180292405648864
261 -0.027845954363713496 -19.724007494662146 -10.49315363851139
295 13.748907303801582 -9.276400400583563 -10.905539396313383
417 -8.276637531350376 -4.8427493642001425 18.851048930465772
259 -1.062784196811462 -18.42861987254257 -3.0738657482861838
423 -7.515072341423705 4.417704752102707 -9.851643743501427
389 6.2456202136618195 -17.2758697229582 5.196368235060229
33 -0.432149028226619 -4.32508319005641 7.172824244287902
387 2.4002690409067267 -2.9116296308402063 28.057778521378342
37 -3.420753611992896 3.6553313684554283 -3.305633836953482
71 4.349598766969281 -2.382825603642343 3.365919927207376
35 10.820103751744565 -4.163353551581212 5.123131719891879
193 2.5535816394550697 -3.929598000543418 4.060117125062223
165 -9.508180829517334 -13.214055457668271 6.1656112221276596
199 -5.854717957594528 -3.7186079996618413 2.51530026267798
163 -13.476403987771107 2.376186158619459 -8.481990731384252
321 7.043885801659603 -20.291311007693164 -10.85109485452677
293 21.273744901396576 21.555891042582907 8.273555743697035
327 0.5596245544547224 19.178719752253524 17.901634379045497
449 -13.233159402183862 6.54945681288574 1.8803769808485133
291 -5.217607995467605 5.0633943906055 22.184713583090947
455 -6.467522040608192 -2.937904187259809 -5.399758701274967
421 4.296847057084034 7.389630134294246 -12.950239178674737
65 -3.7882518843711876 -3.2983712092452815 3.905200314320849
419 -2.804095500752921 7.884148916565857 4.317153299441094
69 3.4190874147049253 13.392416245560552 0.7435653688441285
103 13.470050689435483 10.017095286891337 -5.216065775013249
225 22.373554146469708 13.238070130544234 -12.720038002972002
67 3.398863000027998 -14.312920678792649 4.859090393385588
197 -11.798995588927657 10.150391285969365 -9.817848654999294
231 1.2103582157685802 -1.8081089169776625 0.33781100691620514
195 10.427333274980791 -3.716264426593213 -12.884653949261285
353 -7.605439518026144 0.38917390255273415 4.066658116285666
325 -8.544537945537385 -18.145010855513636 -0.9873307686842001
359 -16.09972074300111 -3.046278669348364 1.0206690844916946
323 -8.57208012802838 -12.087232271776585 3.6795914313778164
481 -15.3708015156545 9.899474014710828 -11.518441260650949
487 -12.941389038398176 -1.3599599244729241 3.4379294728206338
453 -2.673152606764147 8.333419901169982 -22.365862494424007
97 -6.975839481217253 -1.5084148105337478 10.680287932385358
451 -12.07858541663686 11.704913092185599 -12.719773540906914
7 -14.229602741610526 -0.2740302135383394 13.710929128261753
101 0.8738722533602441 10.800297511076456 -3.299182855154961
129 -1.191884373736234 -7.009290869990271 1.025466463167213
99 -0.545357659127231 8.895315561803205 4.4325298570605325
135 -3.9723280124890175 26.095164219678843 1.4561410753421435
229 4.0424662763838555 -14.525659091218353 -13.313211737792281
257 7.711626705243835 -2.9011311552863246 5.249257735487431
227 -1.7490120857050016 0.522191306166713 -1.2309069743840129
263 -22.274615319330124 -7.137390887618394 12.814264761447095
357 8.486062493444493 -10.666183914844062 9.86903407602362
355 15.140605814091488 -19.87324168718683 -1.2980384470149082
385 -8.120485872284581 1.1513908519547325 4.084361274683191
391 21.89802859270819 -19.576638818060882 -7.524816589901619
485 -3.468366042355942 1.402946788694635 17.261959799849272
1 11.18866673074244 7.759422070242382 -22.900603946777967
483 -7.27289002547515 20.80237395629385 -1.828099801550283
38 -1.893054266094431 -12.102728714532281 21.121596555389452
40 -4.542705212501691 -1.7307243206764853 17.067337720685803
162 10.778746901346807 3.6605083316366778 4.249655801784874
164 6.3474600314050225 19.521682770027827 -12.800222089296442
168 -4.446144143301682 6.488000030876055 8.500312729396061
166 6.70956024400275 -15.706829510583193 9.181347680448525
290 4.030405560062584 0.8743944101644909 -2.594097307902714
296 -4.168725284437239 6.5785103351730045 16.452661334312015
294 -5.410339338505271 2.8354055686732482 3.5836647445444583
418 0.7019670499801147 6.86746618971938 -0.10012846722296953
420 12.116529366045233 17.25380242956859 -9.183380605029038
388 1.7792795958828986 5.295525284975069 -7.697539385375808
422 -6.554152303446028 17.18275070989751 8.317884573995011
424 13.219921121099592 -17.012605239463795 3.4381515283829294
36 5.77325328850219 13.624392281618842 10.240635823742167
34 -0.21092373154278002 -7.201259778124664 8.76312701594562
70 -15.352620041513315 -4.611314215929762 15.747827039624816
72 14.859391046092114 -3.560434947941164 -15.372247345400659
194 7.269284073106323 8.005831261695244 -0.3355797454132034
196 7.659700089240524 8.897607206056563 8.694462073451033
198 -3.02204340501875 -13.247932227201417 8.927033141676258
200 -1.5523045318500859 -3.138667270495863 11.078977773645468
292 -15.566577865399848 -1.371760718614961 -10.301161346120807
322 7.240786600238966 -12.883881148551229 11.502012903322635
324 11.003679754755172 -9.96801282289304 -9.037698962484912
326 -20.536518586562927 -17.752749389923274 -3.736158585907659
328 -2.802156530306665 -2.479090709584128 5.2750062936529565
452 20.943027635598067 -22.50379228876185 7.162222500106958
450 -2.221089179689529 6.535990046662466 -20.046599237784772
454 9.452201937098327 -2.2188490887457526 10.177721561195673
456 0.3839403184227246 -2.4554085609162044 6.42815738643586
68 -2.903696434956747 4.818538960816916 -2.720369406121067
66 -14.664204432950864 11.11098447073023 2.9811538816893
102 -0.4915320990181354 -2.769115718770621 14.480918637256348
104 -0.9289528825677673 23.74748439526164 -11.54408235151756
226 16.96509200135077 6.197548208785259 5.010620676097065
228 9.513117966251128 -3.8246046180515596 -5.346552567921097
230 -11.307703542198746 12.681305534419739 1.6070105369266587
232 3.0674139961448375 9.665625504242279 2.477014054770333
354 -2.249906937895429 -2.549812717551147 -25.26954278707397
356 -20.271036431961 -9.32045098535651 -4.018659618479394
358 -4.878414479254131 -6.637958015782859 19.585057224663093
360 -10.050962291647476 -5.75746112255607 -11.929387513860098
484 10.200988561279132 -6.5597179672267085 -14.25892442407178
482 -2.2979340106352546 4.117115085686555 -8.834100992377746
486 -0.9095646273320661 18.977224616473688 -8.060432916906741
488 -10.523090722140216 -22.850699345690117 -10.536141622920045
100 2.697726360348395 5.774201969887485 -16.970304397677562
98 0.7339118240012292 15.062098546362419 -10.425411152785792
6 -7.618113988855406 -1.4092379789659115 -11.595566823914897
8 -2.2250125203511653 -12.096655705904434 0.20424839352100965
130 10.66970017065875 22.852682337612304 -14.809195598244175
132 -0.27731888276524624 -9.279763431842325 -6.501651767090454
134 0.8939306079929326 12.14238896351705 -16.938372279688807
136 -3.081803386073734 -2.145608003933366 10.040733072003219
258 9.311503127672607 2.1429278522895787 -2.9483817996416675
260 14.612745586478608 -1.7102985359394518 3.2594184123620447
262 8.843235036296797 4.187676078252083 2.4559972596350947
264 14.738270984149024 14.621553223368414 -22.1976236817391
386 -4.689898293109061 -5.288766602436957 -18.1988349355084
390 -20.38909418664149 9.646746065865992 20.55601294503339
392 9.36490624081267 -22.199601286569738 10.351259553615973
4 -10.411337646318099 -4.844638597175487 -5.716358399894742
2 -11.298735937387683 -15.593074854021115 10.676224089860238
13 15.30765162811641 5.618140856031272 11.147398004878298
15 4.5934103518509355 2.837175653746359 -9.11970154941886
10 -0.5952721087469954 -11.154267889601176 14.216230676032913
11 -5.542477762193855 16.51081986437174 -4.179499863294985
137 17.624264521600782 19.509773533845653 0.023211723745515372
141 -2.720311621109219 -5.668031159693686 -11.061005183673583
143 5.660218980980911 6.171963747857135 11.2819815908183
139 6.694569201317287 16.192877115715675 3.020947659820114
265 -6.989531574260276 -16.377051308596393 -11.682624513788953
271 -5.361923214140862 15.338647620343245 -25.57404146558043
269 11.64354328179559 -9.554533006605132 -5.250256245908628
393 4.200040029232527 -25.028067402175964 15.885981666762623
267 -15.761066439575803 -5.936607371154445 12.23096738606348
397 4.078010598129468 4.122720122549207 -6.484856374851007
399 -0.8428199157539141 -0.021999559781061724 2.7655269389782626
9 -9.295377044840185 -7.396749589592213 0.20363525754335288
395 9.080002848313676 -6.244622086738468 -11.20331716874838
45 -14.486739343230676 2.174450023924247 4.226844961010215
47 -11.8073786579126 -4.354985564931643 -3.87164885052919
43 -19.146513313794856 -0.6144073586889753 12.375302774793512
169 1.8805120525015098 4.74877870948534 10.661700639201054
173 -14.846920538043237 -3.0407185430746866 0.6574878000197808
175 2.098017947783742 2.672119102517861 11.71158470686885
297 -7.07946573306755 -7.349772269416626 11.531623207597434
171 -2.600818481446537 17.437005331986004 16.996171823745684
303 26.020836668650404 -2.07269982545468 3.7151455645445157
301 -6.087520528442343 30.3730000503927 -16.893849904160287
425 -1.6424823081792896 -2.7444481287010203 17.4085208836187
299 -0.683007820849598 -14.337660824309088 -7.912725226228888
431 5.803352994876882 22.33388706969552 -13.616290734907857
429 4.138891304852595 -11.718662622669797 9.744923090584834
41 5.250983370829809 -2.741318213972686 26.467054707564447
427 -3.1370935020895008 -7.3649411258967685 15.373307951485856
77 -13.611534545018037 -3.4885264819215265 5.753029966659622
79 -9.83426248666515 -6.699726983386228 -9.630766027025093
75 5.453627429496775 -11.984542257025096 -11.789756002820507
201 6.3091406568855275 -0.5265346154914734 1.363375823622114
205 -17.332148899156977 6.871724000784349 -5.658840430088836
207 1.0759913094934912 -8.904469395532688 7.596581922155462
203 -1.3965523793097243 6.564477600252214 -7.582516607937833
329 14.40302966428289 9.39161165410679 22.457788981974204
335 14.475345605188874 28.53473311538337 15.547622742516502
333 3.0304301914502467 23.697745464758345 2.393247480342383
457 -1.962568706480755 5.36761542372456 -16.17832163967205
331 -4.82101730031607 -7.8240908609114586 -2.1249903829546364
461 -0.22053905674984445 25.22680392693302 15.055874904683119
463 19.902873265258098 10.33985894605851 -16.464686332829306
73 8.788675465901822 9.031390226795917 -20.88069968153916
459 -0.9111473682682751 7.242528774118827 11.747098264280622
109 4.86014723533223 -0.5297164915478263 -10.330163623304717
111 5.867710580452776 -0.8211812036495066 -0.48740996546016346
107 -9.724279937794812 -5.913512360753584 19.86743645033432
233 12.567998892691108 5.013196735695054 12.581220822181505
78 7.9534645405884 -0.2647817877085955 -6.1426491970819574
237 -12.883601627484484 34.086783566751755 6.361714072400492
239 -2.9135146251893906 -1.37041496254854 10.201142530414108
235 -5.980977200369455 9.331888417708683 20.84486823774983
361 -11.69738723704555 14.144837522138612 -3.919681774433978
367 3.854091775699354 11.96690121370143 5.075359187214599
365 5.618376465118551 -0.14208905050200868 -10.961328684953694
489 -3.32908746668576 -0.9516833400925957 -23.81965880222516
363 0.22568804221844882 1.7498983074609982 4.165440694562872
493 13.421991115856878 7.034685578837614 -11.865769150700007
495 3.6542426222299063 5.248824089014467 -9.261501832026985
105 -14.450508030173912 4.191647635704687 0.24939172578787683
491 4.220046329719621 -7.34608764020025 5.750246813971454
108 -11.082721345010667 -15.529010800081386 -28.596441027430224
17 -21.315249525128312 13.367078535263172 1.8574176690235316
499 2.636891756743317 -5.425507878108398 11.964459537748759
16 -6.700692205280585 -0.6292615271882988 11.038601743947268
110 3.097944549853255 -11.698322202849388 3.8823003955905397
23 -9.035057814028566 11.318689150306302 -4.876005256644097
117 -17.773635747569188 -10.851522679398268 -11.007641171756543
138 6.025689389805885 -1.521194645696646 3.934633057025799
236 2.535044264552337 -9.566697732550299 -16.507950411271697
115 6.092478969807681 -8.495788115045288 -23.264098072780477
145 9.647279636160606 -13.020472222571621 8.638467314179495
144 -8.947137884299963 3.372188074989053 9.011113751223954
238 8.84790603064403 -5.933756509015568 -10.459940636383823
151 3.4133602522521183 -4.241041674908931 8.224333644620659
245 1.8873406978882588 -12.720439830686697 -10.04815886908266
266 -12.875767505167326 4.68650840316613 6.436023513946408
243 11.916585020501675 -10.747950037406413 1.3380241497313068
364 6.264698535395048 -6.744421766322227 11.173072117918105
273 -15.20700085130117 3.0658606661103605 4.926771704279206
272 1.374801348756835 10.922955905442757 -20.118380255394907
366 -7.006564210841709 5.662589666146623 0.7945986749757306
279 -13.149219732595927 10.899666012464914 -3.2848605956060855
394 15.257480561659579 -3.743199372075651 -9.552115619160746
492 -11.114827479801002 3.574715472775687 15.10258846807697
371 3.739408713933414 -4.894099870219185 -9.597895020211023
400 -6.4618846550842886 12.809667040837825 -8.275185965821766
494 10.983388683305984 -2.5644847894178797 -0.01034056601252478
407 -12.88647804914803 7.411616263358929 -7.854331088539829
12 10.265585538980737 -18.746145930785357 8.293469746989024
42 -6.656534417839296 -23.823447803052627 4.916143025555155
49 10.78775925755251 5.4467490040485105 14.211726581231884
403 3.2037333541841293 11.40057999042777 -12.09486417239823
14 12.982749024849472 16.918266794184813 -2.301326225857472
48 7.652426955736092 -8.175123817309746 -3.9897443650833893
55 -17.295222080774504 6.731147385390551 -6.025808421495267
21 5.145748479900633 -7.944592772908681 -6.591664776943571
140 12.91221321457922 3.563213278461281 19.737232419597262
170 -19.753179909113708 -19.918563934918897 -3.1808429076146045
19 -11.172943173170875 5.052474825993515 -4.9231752874013965
177 -10.313747927312113 -0.29087353242456837 -0.8361202753240085
142 2.9302126040400056 -13.000591668359426 6.413801242072188
176 16.906964147759354 16.792750522382182 -7.658492565883311
149 -0.3221458153944182 -7.270547325795958 -8.634137743140585
183 -14.069793607477674 0.9451679336036891 7.1826906281169824
268 -0.596207133447533 7.317040383910411 6.199647603090099
298 14.330964342853454 16.376773657879397 -2.12257607483492
147 -0.743285581633456 -5.162637030225507 11.947587407081645
270 14.887350160093332 26.07312980660993 -15.694664133002806
304 -1.8537005351488889 1.0154785018124866 -9.397674915016236
277 8.692250014843273 6.349321198878003 -10.181301944169672
311 6.8252462865391665 -7.945125951343033 11.057830378550321
396 2.1401569836822874 17.063840609026684 -18.548688871109203
426 -9.081553080698596 3.974465902352315 -24.07525667878797
275 9.609742246187494 -12.467126676820461 -10.189886651055007
433 12.115900615493814 -10.452493018964708 18.388236398878917
398 0.2508936808688653 -10.770845859197582 4.852605672708751
432 -17.695107142974443 1.4522197835529045 1.2574474185610878
439 7.059586935084611 -18.812557791142083 0.27887290516708607
44 6.8329633855071785 4.256606376497695 -2.7537432641373107
74 8.823085946670863 -6.931363024522658 8.602881395925365
81 -16.464152658585665 -0.22791432238419942 2.470849079435811
435 5.461248030251064 -1.6488098167301648 4.548732001108882
46 -10.069361490445155 -24.747940510870087 11.945289798899987
80 -10.998725493477673 9.334035240177762 -7.8006597658021155
87 -6.622830302760228 -15.232590226681575 14.618628161550319
53 4.443106278972451 -2.020543301023482 -0.4211531314436748
172 5.086774110708379 -9.122970894837593 9.295085976506687
202 1.9651622183218997 -11.437780120313118 11.771770169974976
51 2.699022904281892 9.671786043139914 -1.6447459927317338
209 -1.7088694286367536 -15.810366933407634 -7.294633053260748
174 -15.30488438703762 6.374250287778114 11.343003504932522
208 13.1682610663275 6.425177363779619 2.828264042308399
181 1.405222808521366 -5.4476202664469 8.18500170198086
215 -7.43109887258467 -9.390135330530303 -9.606946399103496
300 -16.772518593983843 2.799513951474608 5.083218473623527
330 7.259908753941932 0.3313762150696904 -5.558121270212677
179 4.878319725520106 -8.483992655138437 -1.2015873793468055
337 10.585997709769162 -22.44268560271233 -19.08922997762783
302 -1.9009576627272842 8.337380031041512 -4.303123661100367
336 13.980157484547034 -8.034885717199296 -0.5537195730217427
309 4.550082301950119 2.20702924854173 -3.0480185454755446
343 -1.6173382367193558 -3.7294697836618753 8.348422046728544
428 -0.8846610913227716 10.482376145017943 7.411418134117585
458 -10.480064560024744 -2.773054197857393 8.832307868839782
307 7.945593103725302 7.212036050863531 -6.7287866964149625
465 -0.7070030952219646 11.619242495839371 -0.722928180554925
430 -4.042239785247663 7.62371155384297 3.6367737309134482
464 0.48276642597467984 -1.1499252867041243 8.090016516520592
437 4.275074254335916 -19.673744241182956 -1.2325486368370782
471 -15.045339821133037 -8.685034579000016 5.932867179326862
76 -0.15438890331556773 5.180978331752459 3.379316509574719
106 -10.417122203608022 -12.660639228768424 6.5695541056702735
113 -5.826587591749943 -1.103560785906746 16.204268953253532
467 34.2201114677773 -13.183798882523073 -7.7543844259803745
112 0.22340376031586967 2.393025366131424 6.724846356135808
119 8.059980813960383 3.373158508218408 -3.96186351557235
85 6.328286002241101 -9.747281372271539 -2.153173952976069
204 6.267704921061905 -1.9173071807479918 3.885011267610388
234 -2.5781230805081714 3.9574927517385117 22.65778675962533
83 6.864278490465787 -9.037431429691638 -16.48694176621978
241 -2.6350662172008152 4.78572757082219 3.0580973427586544
206 2.156120000239998 -4.054529070733898 -9.283880459901374
240 -18.41319296352733 15.798453919662562 25.57390256493826
213 -13.064148969553921 -6.292360281387764 10.454632172040922
247 17.16049716811656 -9.8777650073255 3.9006466137929676
332 6.21013861043324 11.875769292923161 -13.788401844272345
362 -1.2865469289256455 9.353819655608286 -19.929374047522607
211 -15.62881726763306 13.767211704830869 2.467412032960514
369 -5.254984016114168 4.201906507828279 5.811534513737206
334 12.427360499037913 -12.879666546848325 14.3189880279364
368 -11.268113393885335 -9.46950175070505 6.678858026450233
341 10.488406299147256 -3.8960887928849246 15.806042999147806
375 9.914007701722666 -24.14772825233255 5.771345340102991
460 15.454933606459324 -9.029421863897621 -7.800034971738065
490 -8.0531734213046 -2.6619841206238455 1.4052488605009792
339 -6.758904068106968 3.715808878865534 2.16876050039137
497 -9.805617069574765 22.82183652530302 1.554037808051837
462 1.5482223577231202 -17.6217956624166 -21.294051494371622
496 9.175381826837388 -4.422459039079912 4.820918591381367
469 3.06772586320494 -2.046099268971698 4.574749893555686
503 3.6297084423907586 19.956566597490365 10.034571365757323
20 -15.508267361766935 -3.39505392464244 -14.202025132499344
18 -2.2092269110303513 -6.239321936291914 14.390765607725712
22 -10.8104865576743 1.3696021913403749 15.67656971375002
24 10.87045931654083 -0.1605432123698293 -29.25560005665614
146 7.720615430048356 4.891559465819759 3.3730324938168956
148 -22.679675572820333 -6.141953462094488 -20.20907528009249
150 6.567500451221787 -6.357160361328065 0.034862459304316855
152 -1.7280420926367548 -14.744482084002774 -12.8553806527679
274 1.5324346599482819 -3.3315209265043277 21.006886784861077
276 -6.422924701786742 8.396001240197828 -6.099550704930769
373 -5.735885604825319 13.0570214679506 -4.238423599518555
278 6.374942242437801 2.2163889279815066 1.1054049189060688
280 -2.8017011276220662 -1.4898860470205675 8.30505156901573
401 -2.0105133536163633 -3.027919120866102 9.561786982386788
404 5.7817352787732235 22.064895723170512 9.705221924253816
402 12.663551741133933 13.552562605783002 1.0575943264095855
501 5.790728857083581 1.5313832307494475 -1.1382558217661578
406 -13.467341084687307 7.756719355641071 -1.6667922567417375
408 0.5204462949141963 -3.2590865273148055 23.96487524687099
52 2.7665259248911194 -9.25829311132327 -11.987241566533639
50 -0.7490670678744766 -12.828356323567625 8.83460549894792
54 13.965591411098778 18.106436977422355 9.210844393995353
56 -21.845530546867007 3.7364908053308827 20.023461046071766
178 -3.1500970294068313 14.087545662766109 8.844196859864836
180 -6.470360836194277 -1.0160288563180766 10.275638951019332
184 -1.6282604386549635 -3.4140798947058464 11.11784951147248
182 11.545461964340399 15.415772615415973 6.597322108086831
305 -4.44020652066174 -0.5803150367937531 13.902009686729272
306 24.371131812464135 2.3423710618511326 -5.476588857575256
308 -14.447592026070659 -5.468168109753288 4.462268294461139
312 -16.369442498020234 10.122747414078981 2.63815312012963
310 -5.4676851119749355 -0.9838417513729375 -12.145862630880732
436 -2.3683075709207446 10.482506841793496 5.874818023761561
434 13.375690828319142 -11.562919739878566 10.486368529980371
405 20.85092235460624 -7.99057740056468 5.612785176785037
438 -20.858071782569006 -5.811718930608722 3.9198245366140356
440 0.8223753242704137 4.412585269234859 -9.45972238030955
84 13.78791730414573 3.9131905956325648 16.20677632640038
82 7.675513480243173 8.825593267453954 -1.3238192781538511
86 4.53118779177387 2.1564431843451732 -11.03895632396038
88 5.924041361990004 32.11369694568168 -21.93845867445868
210 -8.266491853035488 -4.310438304278185 -15.208327186508331
212 -11.798524062568223 -17.045762864264255 3.043241075343721
214 -18.08387898584834 2.5247714398014374 -3.7799378555295107
216 -12.095818024295903 -12.865661357888841 -22.094786476339113
338 -12.674648293589819 -10.233648085384507 -7.345617973065079
340 10.697458751054105 7.925971432305125 5.425726115743409
342 0.6693875649828185 2.538269852289097 11.206178725793336
344 3.2549460580310945 2.639381302361744 -6.169557356316384
466 1.7257491425511349 -0.3313246807538061 -7.215017238041859
468 -4.288097856700045 -31.58803105318474 -6.799135122664614
470 0.2178991327728353 12.883007301331885 14.389236937276069
472 -6.8302385049618035 -2.6879726117221567 9.171569448868068
116 -13.772812878494404 -6.820551150106848 10.938913749518784
114 21.66214301894613 -1.271436982549531 -22.246956630919076
118 -14.72872901311657 -8.176125968552475 14.275701416600882
120 -12.859947757942088 5.112460154555885 -12.25532134146789
242 -7.625470659014929 -16.603580430756335 -7.028210119367592
244 2.5418070406363897 -14.964626238935045 -16.650204221910755
246 -15.650068054405553 -12.496762182944885 11.740571202342064
248 1.1794041839886218 -5.33687892398774 -13.973774778202067
370 9.649165484309002 0.7281569687668755 7.5203544274140715
372 5.480690964153496 3.1164140618757643 -7.377660357152138
374 3.6371906322171905 -2.0485806381972558 -1.1777885002928208
376 -18.92341511588192 3.839860545255782 -7.790278411337367
500 9.692582303839048 -15.626361271000059 -5.453142883765448
498 2.660544824038281 -5.390864328922056 -5.887406378038736
502 4.088949975677758 1.379321320411759 -8.564162615674862
504 8.771592939107114 -14.32333173158085 1.194792122302965
63 9.689120779226654 -2.577154849069718 6.920974713449939
57 -10.865125229529538 -4.895269069579932 5.251518115360096
29 -0.8929142742458863 28.07491391674512 -0.9034790010030967
27 -9.84570882429165 1.07588248272358 17.2900277833097
185 14.673970603037986 -3.656277470203126 -2.4807905987926224
191 -2.3060603099628665 -7.297172609970088 -9.685748481149854
157 -19.85771792484311 6.390258245749319 -0.4321871602557005
155 -7.235009496015956 -11.982126590946507 16.727618270535782
313 -0.7626006884569163 6.980099641838863 10.811099112733684
319 3.0112799491110915 -6.672461170692468 -0.3054013881604299
285 -20.807575700805643 -10.398580715075646 -31.07316884219083
283 11.136192064020735 1.197657509341558 -5.727446598299563
441 -9.420927965235006 0.46219215405877945 -14.542991856797885
447 -8.315083516995816 -4.511347681775233 -21.179351389513243
413 35.28792480618269 8.461272145251375 6.980180628285029
411 11.077797436774631 13.498650303653639 -4.247122404799419
95 12.663654980930218 -3.2416830844349804 -21.84107979227355
89 21.074336070973867 27.926517362969044 -14.963178237971373
61 -17.765549811366125 -10.393042600267313 -0.19228058720248137
59 -8.355587007660953 13.326174127430827 -3.0464766903039124
217 4.773921101210772 -4.443608134226332 15.12785110417771
223 13.264199445596118 9.474352282985835 -7.341031126820865
189 -15.530296459458839 -0.5475213894105291 -0.8230499834613936
187 -10.769012838071545 -4.820704881774955 -18.511858787790647
345 -9.392817113290587 11.417192845436048 -11.595830416458192
351 -18.603787771923024 7.678181081553768 -10.652001111686554
317 -11.282085677561332 1.5006294613334985 -4.40271973541598
315 -5.5427014814362785 7.075876913643302 8.11730411539876
473 1.447846318368353 4.307372171884625 0.6700078567655267
479 -10.942789942660218 24.702882918167422 12.23620940371953
445 -5.756339401547746 8.323530103650867 1.9233579554296836
443 5.2296847314993355 -1.1714261168144573 -4.008174441625467
127 -5.818962835074514 -9.589165450409796 -6.7826001118289065
121 22.928136276639364 0.14051884249035676 7.476649984314715
93 7.3111928006499936 -26.32472426132064 9.319544710723138
91 6.730584950159743 -12.344141455825026 0.7062440806457746
249 9.065908017750743 -1.5748316260208717 7.854020503208523
255 -18.905954352864455 12.069716593647103 1.600541394078317
221 2.1091017354341246 6.7976571901592555 -5.488878000689612
219 6.398270346563836 -16.905802854684797 -21.252279973876103
377 11.077748884628072 5.281620298562073 11.877044517216628
383 -10.81411193612143 -1.6621167084484638 -1.6731792129065315
349 -3.552671943303319 -6.541342890456231 -10.81660999793217
347 3.0573360595514534 16.92554499624015 -7.90706705212811
505 -7.433045962640983 6.353532341711667 -9.106791986427817
511 -21.328260541742143 1.1672752869546106 8.297148624287347
477 -5.32795545656983 0.21334484217356992 6.037101723542132
475 27.63482625376875 5.186342454120723 -6.846184109386388
31 -2.157565572032819 -18.791414004192898 -8.14499250024769
25 9.699853459370033 -1.1228344194372186 15.15797894692721
125 0.0016329259579469886 -13.000621322998343 -4.687631526967973
123 -6.343464410363709 -10.685389963378169 -9.212046763429914
153 7.511725913509589 -9.612958130642728 0.03369361818682259
159 -8.075459344413927 -5.422617834196216 6.4898412614885075
253 10.799353789932498 9.100984134382411 1.6998942422364776
251 5.066465122165156 0.6194680139203165 5.870466686724421
281 -2.493165123486165 0.3700875998772558 -0.35028090092605635
287 14.011350964176284 3.00170828267329 0.9447420621869485
381 19.495704996161805 10.824365548782088 -6.319989921623289
379 6.5027922482120495 9.575635854805691 -3.3932233602292565
415 2.854972655258865 1.267008045265755 -0.7863392762515937
409 -13.151634317365223 -3.3104399759217844 -4.345854821557125
509 -5.419123223918041 -16.137031336559502 -11.371522523094734
507 8.647902629775123 10.751274556613057 -5.905698683059248
60 12.575238957650535 18.885941121916147 -20.449666823834708
62 12.672996373431051 -10.209372480391208 20.09102116687314
64 -4.439691652562039 -17.885323057759724 3.5714526144091145
186 4.230015709685909 -17.755248332044747 -10.90059872176805
188 -16.75946105127283 -10.903823653454387 4.187015939372003
190 -7.64071774486939 0.20429718795727922 -8.2215766424433
192 -2.9732251739683906 -9.321533811339245 -19.11341771777566
314 -1.9268568487871431 -9.318877532841627 12.155067416546574
316 -5.499427101357772 -15.791185939019762 -15.368726899682624
318 6.670538894162031 2.1007251481858358 -5.783454965644645
320 -11.640028444703246 -7.5906731861737295 5.950192394324616
442 2.6262443111268663 16.150379208103903 -3.824532999308563
444 12.19007173349128 -0.1525164246263359 -9.09126929585647
446 -8.788061742699176 12.90416859380574 -21.21537058179966
58 15.801673426515011 -8.057034979285438 -8.132476979048429
448 2.9693360573036736 1.5984031157445735 9.105105059373829
92 -4.080510986543776 -3.799294032453685 2.314144485418011
94 -10.222313370529692 4.0434406891591905 -8.793063684867835
96 17.856473188622846 -6.820390106588442 -3.4416871173206305
218 0.2945363605175744 10.134512824573626 0.9110445936643233
220 2.8316755264578433 10.96537917098412 4.69347018908683
222 -2.923620076375194 -8.582974103593365 -6.7149315840174
224 -20.690153417269094 -8.206951386014268 -5.943767829185478
346 2.4411380314819593 -17.386606475597677 15.512881697003314
350 12.15258488697221 8.764418831918414 -12.314694453179198
348 5.545428805606469 -8.851581984309153 -9.094696114388745
352 3.118476451342369 7.255016822198347 0.2949607086646535
474 -8.225809744932272 -0.4560404664686264 -34.54442446872064
476 30.17612067037635 3.7665996474148136 -5.671638586022355
478 11.330830187007852 -7.014713215671139 12.745149106428562
90 -5.509157897380488 15.809295978817943 9.52439004094352
480 -6.857264965916395 16.26738030397584 -0.3756563387377483
124 -11.337853088335782 -7.658202229578323 2.2532068418927484
126 5.12295418421391 -1.221782993257516 -1.867665532481785
128 -5.239176442164568 12.995926722871154 39.5960094425417
250 -6.150926690444455 27.42645655960906 -6.927567486818336
252 -1.1268690350182702 1.3770451919069049 3.7578079532873336
254 4.352210514110365 6.606598704616752 -8.261994470646655
256 -12.299426839666912 -4.6927361833669 -11.17217772193322
378 1.3190230827722866 4.545171926967409 -0.5007783463476714
380 3.1843814084519373 10.01894534236635 -17.49376576715349
382 11.429267679403276 -23.066358438127647 2.1630005211972922
384 -4.99662873230694 0.7883032158007425 23.234206077356575
506 7.008263035612324 -6.74831843193882 28.127603731074778
508 -6.892880060974183 4.704563682082238 12.475146578363734
510 6.004693147117593 -19.078339911743612 12.192622806397509
122 -4.275967822065288 -11.061720282527464 20.63864142974876
512 9.912899909557776 6.320881869785246 -2.182175854127253
28 -2.193638790036795 6.8784084247445465 -13.131352294787243
30 16.625403156696763 13.325696056200313 -3.6560692100110503
32 5.779133407955 -1.8122995308957763 -8.859696479464338
154 5.0465023716087005 16.549591244928372 9.479334984064375
156 2.2261479657288294 -3.444272811241487 -5.683856771894046
158 -14.448904087030796 -8.885992685960487 -6.465051577009485
160 -12.820317230385196 -1.2636816201012246 -4.342556412285729
282 -7.174786110531004 -8.465077551115687 1.738388806752197
286 11.342106664477761 4.541472955585078 3.5284378976463016
284 -0.4766470595694718 -0.23761643565045024 11.935806679156169
288 23.92297651210502 2.1471833420637614 14.36668668612134
410 -8.97549313389962 -1.7897194039029987 5.448593277821379
412 -10.563945326886516 -6.554787294294859 -2.0584793113141493
414 -5.41942963930865 9.637811811395515 14.259302578009416
26 11.139538604738485 -26.481602645700818 0.2630125862749616
416 -4.720861452372412 5.224184839200642 -15.103101955959282
