LAMMPS data file via write_data, version 22 Jul 2025, timestep = 200000, units = metal

512 atoms
1 atom types

0.12545089821550448 16.968444379346543 xlo xhi
0.07047750725904578 9.798687532741315 ylo yhi
7.621134211822477 23.591157788178048 zlo zhi

Masses

1 12.01099999691024

Atoms # atomic

33 1 0.7358728106120512 1.5383017074543095 8.458986376986251 0 0 0
39 1 2.148784776524998 1.4795707948747576 8.50058489177416 0 0 0
3 1 4.235132325084715 0.335477722022459 8.585304420996536 0 0 0
5 1 2.8835595304782546 0.3193116521765371 8.563166722053035 0 0 0
161 1 5.004629910514416 1.544820403230065 8.552033871590648 0 0 0
167 1 6.37538731021758 1.5536464410255797 8.738077770037902 0 0 0
133 1 7.048097557459267 0.39523431311205437 8.768749898842755 0 0 0
131 1 8.38103250588246 0.3923482110224626 8.858491976711678 0 0 0
289 1 9.165422750629723 1.597515583093954 8.724230397904721 0 0 0
295 1 10.54060602646473 1.5967285100679713 8.635488143515461 0 0 0
259 1 12.657746040663186 0.3557904056161444 8.556252568950752 0 0 0
261 1 11.291946611277027 0.35021870678660016 8.687421216843685 0 0 0
417 1 13.313568074049213 1.5792685927558858 8.62083683762624 0 0 0
423 1 14.702714658485268 1.5239284570128626 8.662815130913783 0 0 0
389 1 15.447906053754918 0.32121713004280394 8.611676410462636 0 0 0
387 1 16.853950072194177 0.3127534559457634 8.580844887633727 0 0 0
65 1 0.8110582100297182 3.9476998328932495 8.629842157578253 0 0 0
71 1 2.1367786609361343 3.9375970378934477 8.581972515554723 0 0 0
35 1 4.227364595186786 2.7293150068878185 8.662715549429945 0 0 0
37 1 2.827223077658458 2.753786272586303 8.57219220325597 0 0 0
193 1 4.944021921181482 3.98363518430211 8.600057277650379 0 0 0
199 1 6.282144351662296 3.9966680044949108 8.745933568290727 0 0 0
165 1 7.079831091610747 2.8036730673000796 8.746277799325041 0 0 0
163 1 8.48236961446492 2.82770842992469 8.712289465156022 0 0 0
321 1 9.17256041609463 4.026599970877634 8.664249842063132 0 0 0
327 1 10.530255039387974 4.023157934180963 8.717474807212666 0 0 0
291 1 12.639054850499809 2.770324603415307 8.614123276594663 0 0 0
293 1 11.234177243124309 2.8050325892164403 8.720491084315094 0 0 0
449 1 13.328569447010407 3.902490899082572 8.63754729618698 0 0 0
455 1 14.778877555487288 3.987555444568472 8.545759158924133 0 0 0
421 1 15.46681318156203 2.761428439418226 8.63991922884747 0 0 0
419 1 16.892694661197886 2.7540081649437633 8.562375979139519 0 0 0
97 1 0.7865687722253152 6.363709871694717 8.565309254860685 0 0 0
103 1 2.1952732271399933 6.3527135310082885 8.601964901208637 0 0 0
67 1 4.239376011707618 5.170666853405075 8.570438009220625 0 0 0
69 1 2.8759074615904168 5.185427879259744 8.593275700016255 0 0 0
225 1 4.940569289509213 6.422396555727169 8.531857839422821 0 0 0
231 1 6.277567905252397 6.469412349675136 8.68663682118752 0 0 0
197 1 7.026391559532357 5.213401449020705 8.704873061557745 0 0 0
195 1 8.44550395689782 5.237518838789668 8.646684112991572 0 0 0
353 1 9.141832067100541 6.470353620170679 8.738294777581524 0 0 0
359 1 10.564316119973421 6.461055685719578 8.648002364788844 0 0 0
325 1 11.269780295272568 5.162011121071282 8.720193469901172 0 0 0
323 1 12.68041187640763 5.123460282880366 8.568196716363564 0 0 0
481 1 13.274490442433464 6.332140364753935 8.516504386357841 0 0 0
487 1 14.724448701568976 6.449324922341085 8.60237897124075 0 0 0
453 1 15.461490075027147 5.203326864250141 8.56349901890879 0 0 0
451 1 16.910426413524704 5.16322295691528 8.596626939323432 0 0 0
1 1 0.7715115204978595 8.83339200318984 8.554789273248584 0 -1 0
7 1 2.1651343430418133 8.855712117231754 8.564742878503585 0 -1 0
99 1 4.261412096245137 7.617884335621067 8.612516277226044 0 0 0
101 1 2.854260766044352 7.5639176818572285 8.501680124611953 0 0 0
129 1 4.9972886379619785 8.788668304613674 8.622938125834414 0 -1 0
135 1 6.35592501664162 8.836624205144375 8.601196345571104 0 -1 0
229 1 7.014689084749617 7.621625586607591 8.644684452117842 0 0 0
227 1 8.390928747436051 7.62495232834 8.747221229482484 0 0 0
257 1 9.13264383116736 8.894598164712214 8.756067624985603 0 -1 0
263 1 10.5156056420646 8.894184641201857 8.649859685868389 0 -1 0
355 1 12.6149389778014 7.588412324601185 8.551824283048969 0 0 0
357 1 11.217433137847083 7.666373032460386 8.722701485431465 0 0 0
385 1 13.379600262627683 8.814602258681223 8.59856266238485 0 -1 0
391 1 14.78837879346455 8.85942959220639 8.504217138259538 0 -1 0
485 1 15.468864727217435 7.6683171085732456 8.490632422720443 0 0 0
483 1 16.897625189626112 7.583760352039262 8.52254186550247 0 0 0
38 1 2.119852622358539 2.4506325591003923 10.500844945407342 0 0 0
36 1 0.6853021618059468 2.398737856387769 10.538304846700834 0 0 0
40 1 2.787304607114191 1.2184544567355156 10.562489332295982 0 0 0
162 1 4.120692533043627 1.1910265693482065 10.593763892412188 0 0 0
164 1 4.826629364296918 2.3858700275995615 10.626138602296653 0 0 0
166 1 6.233413720035957 2.3828898056158074 10.675196661050437 0 0 0
168 1 6.940480931295919 1.2157222991054408 10.730717916976277 0 0 0
290 1 8.375130221493894 1.205502874167501 10.799435119072571 0 0 0
260 1 9.121289265244075 9.706830781541111 10.793099363751192 0 -1 0
292 1 9.137596776442571 2.4382232008332676 10.72355879014862 0 0 0
294 1 10.520526410509337 2.394000056184943 10.637915157545548 0 0 0
296 1 11.215942595557042 1.0893303484119303 10.69669802303703 0 0 0
418 1 12.589847062008362 1.1245740461823797 10.586807076285544 0 0 0
420 1 13.297587213975955 2.3797043367345383 10.609911925149962 0 0 0
422 1 14.701961325343483 2.384538948498455 10.674559286971924 0 0 0
34 1 16.80097364322227 1.1726279986201138 10.517180174221355 -1 0 0
424 1 15.492238593276054 1.1969180760981464 10.676892096689635 0 0 0
70 1 2.1088246891002145 4.850751220052985 10.545477383869512 0 0 0
68 1 0.7445757216528324 4.900071452355733 10.561380689245732 0 0 0
72 1 2.783577476253098 3.6162987248530003 10.561920246947288 0 0 0
194 1 4.161728664546486 3.55755530813268 10.585808666133804 0 0 0
196 1 4.919526219175869 4.8311853279904895 10.636138028351116 0 0 0
198 1 6.268524684896696 4.844563446630092 10.668611110715162 0 0 0
200 1 6.941367019385981 3.578357436564672 10.696565601734953 0 0 0
322 1 8.335841451259501 3.641565183516205 10.659947229778664 0 0 0
324 1 9.074614234720496 4.851092930765395 10.601863597156537 0 0 0
450 1 12.601176657482107 3.5546084573440293 10.577250443582138 0 0 0
326 1 10.521270320445948 4.812021836870128 10.661929220604002 0 0 0
328 1 11.20404028628311 3.5953038466343523 10.658797207724213 0 0 0
452 1 13.337643256542984 4.846616015566624 10.654782349833233 0 0 0
454 1 14.724528019474818 4.875765619015414 10.57302032455356 0 0 0
66 1 16.82236154214748 3.6123897761749997 10.57797307300082 -1 0 0
456 1 15.394902778739056 3.6722869915911027 10.557309883267745 0 0 0
102 1 2.065249120373921 7.277364409720821 10.571401845477348 0 0 0
100 1 0.6956365843364576 7.308270521551917 10.591443948822775 0 0 0
104 1 2.860976191332731 6.0143174025124155 10.57994244131383 0 0 0
226 1 4.276692533807663 6.0090207294126055 10.542628317829873 0 0 0
228 1 4.884549154099435 7.292974083801424 10.636460220494403 0 0 0
230 1 6.305552314331808 7.3242924970747145 10.698059907627954 0 0 0
232 1 6.969552985953419 6.062618247317437 10.713519388750463 0 0 0
354 1 8.369951509762043 6.072046276059668 10.731645856535497 0 0 0
356 1 9.079826115822533 7.24579285610368 10.765676050026883 0 0 0
358 1 10.483543156789882 7.2047458677748315 10.703028909570422 0 0 0
482 1 12.623007947331276 6.024848172948514 10.540103623453723 0 0 0
360 1 11.182746587421168 6.030637525503914 10.721557581389009 0 0 0
484 1 13.297538645535003 7.192805492198627 10.509299867925987 0 0 0
486 1 14.698259867361127 7.2538694048223755 10.545437882398783 0 0 0
98 1 16.829544184847755 6.1106743893711215 10.540947220085469 -1 0 0
488 1 15.431088106848778 6.047977198539305 10.538985421048224 0 0 0
6 1 2.0968071150299408 9.727680570755224 10.616709361674594 0 -1 0
4 1 0.7028942921753848 9.724956680181466 10.582353285105924 0 -1 0
8 1 2.817053351291361 8.434438970673481 10.6508598445132 0 -1 0
130 1 4.195967869421221 8.40886173515397 10.553397575042833 0 -1 0
132 1 4.865273550669911 9.677146505694497 10.640622133031112 0 -1 0
134 1 6.247208453484738 9.755020764842998 10.677458743695704 0 -1 0
136 1 7.027194059344783 8.500943215446608 10.658399033538347 0 -1 0
258 1 8.423005818765956 8.522272791891067 10.744880467593417 0 -1 0
262 1 10.539821814894914 9.62850307007056 10.657020929071603 0 -1 0
386 1 12.629384236304299 8.410384335413712 10.575211265532046 0 -1 0
264 1 11.168734998584336 8.3858367036041 10.688241174987011 0 -1 0
388 1 13.327377337857039 9.72632870370401 10.561382878424515 0 -1 0
390 1 14.73921956220429 9.748322656359177 10.55951960853696 0 -1 0
2 1 16.868274815283325 8.479663004589325 10.476160112722317 -1 -1 0
392 1 15.42392493622421 8.528390433905194 10.584514486588633 0 -1 0
11 1 2.0224525178386514 0.8145966226230051 12.573868890535948 0 0 0
13 1 0.636811041549176 0.8003328245010175 12.58219462024632 0 0 0
169 1 2.715783633775932 2.008267881437214 12.518540040276612 0 0 0
175 1 4.115423812000598 2.028050150776752 12.587885052297965 0 0 0
141 1 4.8505898528879365 0.8582038359180514 12.586168379446391 0 0 0
139 1 6.269171670936646 0.8133349758210977 12.713285395748066 0 0 0
297 1 7.006118398261533 2.0240529535688263 12.748922942653767 0 0 0
303 1 8.37510421588434 2.0041288417810788 12.737940436507103 0 0 0
269 1 9.112796384478946 0.7843203285722345 12.738643199225397 0 0 0
267 1 10.521828229324761 0.7746191660790311 12.65322850206903 0 0 0
431 1 12.626122864536367 1.9823627650001474 12.622520854060317 0 0 0
425 1 11.215305467488381 2.021665585350825 12.627072269426467 0 0 0
397 1 13.28070696886097 0.7527738640426505 12.554942541286934 0 0 0
395 1 14.697005557347765 0.8294450275974105 12.661567369562917 0 0 0
41 1 15.404946880551421 2.0290091356714703 12.618299145631493 -1 0 0
47 1 16.758292929323165 2.057361415845633 12.662707770126554 -1 0 0
43 1 2.0455749920422317 3.22252795044547 12.49312235982516 0 0 0
45 1 0.6553481922737306 3.288473871825492 12.555638116809757 0 0 0
201 1 2.7500766996981487 4.445954945772609 12.51614441013349 0 0 0
207 1 4.161515199190027 4.443111921819456 12.574977986165049 0 0 0
173 1 4.882255891789998 3.249067788309773 12.557225661868832 0 0 0
171 1 6.269597389302942 3.215217236882957 12.720879764721785 0 0 0
329 1 7.001402378313479 4.467805468204089 12.654011720100367 0 0 0
335 1 8.38508966452617 4.438895954364828 12.601460674032625 0 0 0
301 1 9.116647967573948 3.203906326873604 12.734413507192151 0 0 0
299 1 10.49147242048991 3.238345003789388 12.610713179474843 0 0 0
463 1 12.591372091852374 4.395179216338519 12.573360143231337 0 0 0
457 1 11.162498564356104 4.457671627991486 12.603138347767139 0 0 0
429 1 13.28509582508857 3.24284531388026 12.580053324893072 0 0 0
427 1 14.699410741867807 3.2742936939896032 12.595973182474477 0 0 0
73 1 15.414959713093069 4.504012664836232 12.592752240299717 -1 0 0
79 1 16.787849633676693 4.478716073080793 12.503446447833273 -1 0 0
75 1 2.00706718163958 5.656127689354379 12.587921093129776 0 0 0
77 1 0.655633139517308 5.651279883345173 12.572024889674992 0 0 0
233 1 2.784388964488442 6.859194930297752 12.603609528717719 0 0 0
239 1 4.171313224222961 6.811527929028072 12.587352577625877 0 0 0
205 1 4.895429418611688 5.633475313300444 12.604328973046243 0 0 0
203 1 6.293924272971815 5.678035222140421 12.682795632155337 0 0 0
361 1 6.951465778048752 6.927649623160218 12.685249535228976 0 0 0
367 1 8.334165041708475 6.873759634216351 12.78528779700876 0 0 0
333 1 9.047234710037912 5.635680743476039 12.671573950605113 0 0 0
331 1 10.415615502769615 5.671303676445419 12.688852581693226 0 0 0
495 1 12.572618104272996 6.914860993999056 12.456571000128818 0 0 0
489 1 11.158445557388934 6.881504109935603 12.693898309973774 0 0 0
461 1 13.291514153461174 5.707912505759623 12.654907107735074 0 0 0
459 1 14.674315934328586 5.755273372052067 12.50741976995097 0 0 0
105 1 15.407543208382808 6.935010569887288 12.523423931907882 -1 0 0
111 1 16.82113760204521 6.866719005227308 12.486933581644532 -1 0 0
107 1 2.073911876555477 8.129005800110107 12.582172359451008 0 0 0
109 1 0.7075858909733582 8.129430723343484 12.565369076521828 0 0 0
137 1 2.7820975257175107 9.358698281103976 12.673396675576791 0 -1 0
143 1 4.177069632701417 9.333007259590829 12.625338022607664 0 -1 0
237 1 4.911045573759524 8.112428890294975 12.635345858645902 0 0 0
235 1 6.28186039580445 8.126257815303587 12.664402916779677 0 0 0
265 1 6.957386732235394 9.336641028182486 12.746170208420054 0 -1 0
271 1 8.367094918483197 9.30760567306498 12.71010432845317 0 -1 0
365 1 9.093705413164912 8.119266853803458 12.712662972462843 0 0 0
363 1 10.472405349669756 8.09925713300468 12.717995252883014 0 0 0
399 1 12.603859959951244 9.299262329619133 12.56247555382936 0 -1 0
393 1 11.174121248387072 9.266310236777917 12.61398317199956 0 -1 0
493 1 13.271437529394394 8.087980376092307 12.57181500897033 0 0 0
491 1 14.722774064046849 8.105117552765677 12.535106440358941 0 0 0
9 1 15.397617229528093 9.319094568608497 12.577229954260389 -1 -1 0
15 1 16.78321141195923 9.31478143130198 12.530838626609594 -1 -1 0
14 1 2.1192414592742588 1.6980572176141846 14.550731200760577 0 0 0
12 1 0.68112418733295 1.7378686926981703 14.638208491987802 0 0 0
49 1 0.692890125462387 2.544236113000285 16.571908747285384 0 0 0
16 1 2.8529295933515044 0.4626065347883769 14.592183176490028 0 0 0
138 1 4.272794686360649 0.48350449859372774 14.567256804401012 0 0 0
21 1 2.9160144586335854 1.2558764510145939 16.62719397815586 0 0 0
19 1 4.214759630828874 1.2441305656137174 16.534211642502314 0 0 0
140 1 4.963876923654799 1.6831051710663063 14.603171399227147 0 0 0
142 1 6.302553863025801 1.6468502115790258 14.701226548413683 0 0 0
177 1 4.916974312843997 2.5194941661465418 16.63600583373882 0 0 0
183 1 6.293953974021135 2.485340933799295 16.777045124487188 0 0 0
144 1 6.942002277838948 0.5156004253462039 14.740041258833916 0 0 0
266 1 8.31701600010316 0.42469417737041265 14.750538352435454 0 0 0
149 1 7.104716010884232 1.1881081082865437 16.731143407995397 0 0 0
147 1 8.503286021051446 1.2316519588150991 16.691727370029277 0 0 0
268 1 9.076402886950719 1.6262998983424426 14.702284655114406 0 0 0
305 1 9.191627403133968 2.5536591072742847 16.629715717272624 0 0 0
270 1 10.496120178656275 1.6556507334442618 14.588304635689664 0 0 0
311 1 10.574743012783621 2.528467867707761 16.60502186647441 0 0 0
394 1 12.641760412838993 0.42872309853003915 14.531474555150673 0 0 0
272 1 11.221877084348263 0.4256152860285027 14.58891410126979 0 0 0
275 1 12.685991049600425 1.2671079682162159 16.531999900683367 0 0 0
277 1 11.306152986996246 1.2580395669083444 16.645645669149857 0 0 0
396 1 13.36086537506453 1.6477439227042228 14.564983404432425 0 0 0
398 1 14.724502380805449 1.621842883658872 14.612734326635625 0 0 0
433 1 13.434490285575794 2.5618490344817895 16.58277973292924 0 0 0
439 1 14.835366328365785 2.457618709017304 16.636595384210867 0 0 0
10 1 16.817801565479275 0.5001157755459616 14.603091263902593 -1 0 0
400 1 15.43194156045863 0.40345298582795885 14.601658593545535 0 0 0
405 1 15.524660306889723 1.219172485394603 16.5758529713864 0 0 0
403 1 16.83973622598546 1.2609241068671169 16.626037354634207 0 0 0
46 1 2.1308217836703616 4.100466822291458 14.519086286885777 0 0 0
55 1 2.1067370835113852 2.5189328556699606 16.58822923688426 0 0 0
44 1 0.668657160014257 4.084619175582229 14.526208280841821 0 0 0
87 1 2.1233573550296025 4.945906327244933 16.54874029887297 0 0 0
81 1 0.7205877752681388 4.891461205644315 16.526792248214285 0 0 0
48 1 2.846144324443644 2.902215392097085 14.473906255852256 0 0 0
170 1 4.310155524652888 2.8692756017403966 14.580292020473593 0 0 0
53 1 2.787954953366103 3.718791677654921 16.48368596789104 0 0 0
51 1 4.244323053815758 3.6752403366472275 16.498440722490386 0 0 0
172 1 4.9655118513240994 4.127811987506383 14.574797381670704 0 0 0
174 1 6.336478314099765 4.1008155690714485 14.696858563923788 0 0 0
209 1 4.924336523184605 4.860905521639131 16.54859692586176 0 0 0
215 1 6.317905329097222 4.918902612442333 16.648485151231814 0 0 0
176 1 6.989171785096145 2.8576123980469372 14.71529633074141 0 0 0
298 1 8.38550583789326 2.851555061156677 14.688692516538264 0 0 0
181 1 7.052686780178217 3.686648169629344 16.738661106345784 0 0 0
179 1 8.490191866746793 3.7129433980583424 16.673592097226006 0 0 0
300 1 9.119816737519285 4.0523467978470205 14.697178734257296 0 0 0
302 1 10.475779980329156 4.058158118209429 14.591108957751285 0 0 0
343 1 10.627757811894071 4.967980430152751 16.591330110350917 0 0 0
426 1 12.631634843568708 2.8280272051937967 14.567414967408062 0 0 0
304 1 11.202659808794799 2.8558735720116397 14.565429753255167 0 0 0
307 1 12.765676521518035 3.717438117542796 16.56760179905713 0 0 0
309 1 11.349275979306121 3.718984987440825 16.570648141342794 0 0 0
428 1 13.289509408008179 4.058148862500053 14.530807589650491 0 0 0
430 1 14.800212098141666 4.087287675479448 14.538973263014622 0 0 0
465 1 13.455181776046016 4.905708776153233 16.465484440613395 0 0 0
471 1 14.884660340463892 4.937508521352862 16.541751040991393 0 0 0
42 1 16.857111371322258 2.927029817452002 14.588314453252458 -1 0 0
432 1 15.473506502807533 2.8814064671318045 14.547654608224999 0 0 0
437 1 15.543462721604367 3.6986763207949886 16.532483223455728 0 0 0
435 1 16.880093743510972 3.676752375835779 16.549883666110524 0 0 0
78 1 2.0733395270681063 6.5294208877633215 14.53993825070583 0 0 0
76 1 0.63066198421639 6.547409635463493 14.509127737010324 0 0 0
119 1 2.189792776516547 7.288722338308984 16.597881147778168 0 0 0
113 1 0.7488189203069827 7.274107586713851 16.542005244726568 0 0 0
80 1 2.7918460678945025 5.297234222416235 14.528633050598682 0 0 0
202 1 4.227839987729467 5.308946901947106 14.567983691278307 0 0 0
85 1 2.9287072827008536 6.122572430169236 16.484927471250657 0 0 0
83 1 4.280678593930814 6.136094001936133 16.589502624942362 0 0 0
204 1 4.924753111153035 6.495793018331561 14.567380881952241 0 0 0
206 1 6.2827596433400545 6.5760517676591075 14.665722674493384 0 0 0
241 1 4.962285628350932 7.348960965495268 16.536482394891195 0 0 0
247 1 6.360564554942748 7.350823711529612 16.692401259606363 0 0 0
208 1 6.991521138910674 5.304446556553946 14.605818994996934 0 0 0
330 1 8.408954142601843 5.272108900255816 14.699828947115845 0 0 0
213 1 7.072152326551414 6.092159134125772 16.591552571808393 0 0 0
211 1 8.45125781401924 6.089409306323883 16.73905382069971 0 0 0
332 1 9.069090111043106 6.535061145223487 14.709364682509893 0 0 0
337 1 9.22409979313391 4.909487479244291 16.68862607231745 0 0 0
334 1 10.51748129470383 6.527579662932932 14.655170206911006 0 0 0
375 1 10.576897277378912 7.335663676825313 16.631670084213383 0 0 0
458 1 12.598830016628957 5.257852042469706 14.584166409409864 0 0 0
336 1 11.198046519102398 5.30733306009621 14.60011068315264 0 0 0
339 1 12.708222306952816 6.125332442064519 16.590227139447855 0 0 0
341 1 11.340545318991515 6.097440923447787 16.584572233224648 0 0 0
460 1 13.335613837332136 6.477939648338411 14.61420839740755 0 0 0
462 1 14.78155828747891 6.470012462148746 14.501157620663534 0 0 0
497 1 13.4312091709839 7.4200396793305154 16.535263688972254 0 0 0
503 1 14.79697832098154 7.369588771692834 16.568008321099455 0 0 0
74 1 16.861222798166942 5.308047266068595 14.534200821709259 -1 0 0
464 1 15.524946073485017 5.261402523756435 14.538664298613096 0 0 0
469 1 15.488908187513717 6.100140617348831 16.53600289274902 0 0 0
467 1 16.875979418391314 6.099211959963964 16.545818793186147 0 0 0
110 1 2.1321314863469105 8.920829689102852 14.606190477410218 0 0 0
108 1 0.7271950113296709 8.938578659657448 14.566539083981665 0 0 0
17 1 0.73686519082663 0.10304606572359631 16.517741765204434 0 0 0
23 1 2.178719101544407 0.07207031785214824 16.518991080337823 0 0 0
112 1 2.799514988270801 7.702325712592138 14.52096773493922 0 0 0
234 1 4.190125393558084 7.693727463256808 14.560062967312067 0 0 0
117 1 2.839225873891877 8.53431683192308 16.549371779897136 0 0 0
115 1 4.214078467912546 8.536899080883096 16.597059934766413 0 0 0
236 1 4.949441133503273 8.97969361532259 14.55164127197624 0 0 0
238 1 6.293243964786727 9.034200164838646 14.765361332952562 0 0 0
145 1 4.985286177634737 9.792192013257186 16.57756794456982 0 -1 0
151 1 6.353658436523068 9.725955065058018 16.822770050744065 0 -1 0
240 1 6.9856362753579475 7.844675962758119 14.646664811937933 0 0 0
362 1 8.366385009688676 7.757075539475908 14.758675259706669 0 0 0
245 1 7.014162724212263 8.596664568273662 16.684946112103116 0 0 0
243 1 8.45353315972973 8.563034966430024 16.749613498200283 0 0 0
364 1 9.054205602449176 8.911911650547314 14.682903319229306 0 0 0
369 1 9.17907820365845 7.267719099028781 16.790294354247145 0 0 0
273 1 9.220604183449309 0.09233963893955632 16.713508437113397 0 0 0
366 1 10.495784419502462 8.945287970626524 14.619613405655778 0 0 0
279 1 10.604335478768002 9.792904980111711 16.624329893739777 0 -1 0
490 1 12.636584213545598 7.722606790686132 14.571214861060524 0 0 0
368 1 11.217743307843959 7.7588965296474495 14.680667758313714 0 0 0
371 1 12.724083644890332 8.637845750455059 16.525606824328563 0 0 0
373 1 11.272282039171877 8.570492470346046 16.611240900535144 0 0 0
492 1 13.339949194518518 8.91193702152168 14.534120832431778 0 0 0
494 1 14.769579456756116 8.907400804440682 14.57862759657194 0 0 0
401 1 13.374696276803823 0.13429878026074782 16.503818128240994 0 0 0
407 1 14.843377097608741 0.10559797681840699 16.59661404929857 0 0 0
106 1 16.79520007054252 7.694226239923403 14.567620988809724 -1 0 0
496 1 15.48834179184425 7.7148155531498945 14.623410494608343 0 0 0
501 1 15.591710442225475 8.552693019202765 16.590023248511898 0 0 0
499 1 16.93373539096094 8.53854780298811 16.50880591196815 0 0 0
118 1 2.2144065709535883 0.9236820680853075 18.57214568713667 0 1 0
116 1 0.8015797411244858 0.910973003923894 18.54308839553426 0 1 0
24 1 2.9849880646608575 2.1660852026304536 18.504180761991485 0 0 0
146 1 4.33036085645013 2.1019930665594146 18.594984697017395 0 0 0
244 1 5.034975675355596 0.8918035262272945 18.677583635398 0 1 0
246 1 6.482365503558719 0.8989133837922645 18.762486704941693 0 1 0
152 1 7.1533864571748484 2.074863045269497 18.723188712812593 0 0 0
274 1 8.560623958249161 2.1178322309445043 18.69652612275891 0 0 0
372 1 9.302297511748364 0.9068067639437465 18.712170001360313 0 1 0
374 1 10.641304084622709 0.9242148402013104 18.672300549953796 0 1 0
402 1 12.710016514813177 2.0993335037511227 18.53857012296485 0 0 0
280 1 11.315330075267763 2.0805902993485508 18.653003266784705 0 0 0
500 1 13.404832751625685 0.8991663921878531 18.512755887421235 0 1 0
502 1 14.812947076058023 0.8658642803300204 18.595198507557406 0 1 0
18 1 0.15408047133109548 2.0650239934639583 18.549206348043924 0 0 0
408 1 15.497233227800054 2.077428377221484 18.5725051925613 0 0 0
22 1 2.312797767555627 3.3552180835591927 18.504913028295427 0 0 0
20 1 0.8401669304918571 3.294755179159249 18.521335864308615 0 0 0
56 1 2.9756676746517243 4.543333065552623 18.5440155294711 0 0 0
178 1 4.391184405553809 4.534753925991659 18.625574561006196 0 0 0
148 1 5.114203665598914 3.315105914855433 18.672768552169675 0 0 0
150 1 6.466990679439007 3.2885178157486794 18.753081348536504 0 0 0
184 1 7.125924616530929 4.473098276458996 18.719532375118252 0 0 0
306 1 8.51865031255432 4.53672261204281 18.599307848967204 0 0 0
276 1 9.24059335543254 3.293146911221297 18.663198003952935 0 0 0
278 1 10.655162124511177 3.3438444907576446 18.568728216502098 0 0 0
434 1 12.71437326392383 4.570248756221819 18.543476827260776 0 0 0
312 1 11.319614570923427 4.534698433473057 18.552180432360036 0 0 0
404 1 13.385215733339532 3.3173532114552375 18.528496887896317 0 0 0
406 1 14.763713313019174 3.325593881605808 18.57546639352629 0 0 0
50 1 0.15845735728867183 4.488287838460343 18.50736334367226 0 0 0
440 1 15.541181967959478 4.494372063984427 18.519108954595634 0 0 0
54 1 2.205375400403298 5.750767336846504 18.53114218508383 0 0 0
52 1 0.8276653800319899 5.738420006481743 18.572213640604563 0 0 0
88 1 2.8394504935273415 6.974029600793871 18.5877513640833 0 0 0
210 1 4.287336184777381 7.017373615727106 18.52397474342162 0 0 0
180 1 5.056294062763969 5.759101021687794 18.521201391943713 0 0 0
182 1 6.456195826793893 5.757749411494925 18.69583060525247 0 0 0
216 1 7.119071108633062 6.975188927476367 18.65225754970521 0 0 0
338 1 8.507792190913648 6.992174971146154 18.76242558927354 0 0 0
308 1 9.203700846874062 5.7826320215278235 18.70629149022343 0 0 0
310 1 10.595868548183 5.7778458300786095 18.548639314455396 0 0 0
466 1 12.763979410882293 7.022950738076628 18.497595860567518 0 0 0
344 1 11.308935383357507 7.0135626049158875 18.581916194287956 0 0 0
436 1 13.407694621319209 5.79699333241573 18.550928736200724 0 0 0
438 1 14.84571521122407 5.706323909659099 18.493904681501803 0 0 0
82 1 16.957685755703316 6.970970062512805 18.541591732015693 -1 0 0
472 1 15.555671667688562 6.9274309732492 18.49543803870153 0 0 0
86 1 2.2576625042102147 8.155297858775661 18.52102167909473 0 0 0
84 1 0.8025154415171672 8.16660309819704 18.49400302097186 0 0 0
120 1 2.940353121689374 9.376921671827388 18.501076165286918 0 0 0
242 1 4.34339208940099 9.423579537678853 18.575276973594583 0 0 0
212 1 4.998965810006262 8.232954168377374 18.577587593423374 0 0 0
214 1 6.434549517439745 8.195689915978825 18.62658422552247 0 0 0
248 1 7.222991089410009 9.418977383855516 18.701830145404365 0 0 0
370 1 8.584733390000517 9.414471188541482 18.767463079862033 0 0 0
340 1 9.213399983048582 8.26292709303696 18.73709099162222 0 0 0
342 1 10.600277889858921 8.287726297343642 18.5860050923297 0 0 0
498 1 12.753780013082828 9.447031771993384 18.520132094332133 0 0 0
376 1 11.290188064114425 9.41622724828434 18.716022584255484 0 0 0
468 1 13.436002139913064 8.229153991522367 18.498621854052736 0 0 0
470 1 14.816714305646624 8.133498786324283 18.529256156921825 0 0 0
114 1 16.93591071902714 9.350952461809786 18.487000107612708 -1 0 0
504 1 15.466554066028262 9.350840915796514 18.549707472810155 0 0 0
31 1 2.2091504575105763 1.7081869303560087 20.563442982942504 0 0 0
25 1 0.7877847570488716 1.6553543885379063 20.51819612107068 0 0 0
125 1 2.894152719866684 0.42851257799601583 20.52881317842844 0 1 0
123 1 4.26565852113078 0.44135846383968186 20.575554401038136 0 1 0
153 1 4.984544264955764 1.687749919908841 20.61837653976795 0 0 0
159 1 6.332709718867759 1.6672235272841625 20.702929519941396 0 0 0
253 1 7.065459371319969 0.42159203765497943 20.726731184611808 0 1 0
251 1 8.520707653952593 0.49906251846276345 20.717104644152755 0 1 0
281 1 9.236849754780103 1.6664820755936853 20.658073919202547 0 0 0
287 1 10.617437906870752 1.7075088907167955 20.687528030334526 0 0 0
379 1 12.761529335778922 0.45302050616225564 20.493987303567515 0 1 0
381 1 11.378708029808251 0.45165718261742255 20.643074675120175 0 1 0
409 1 13.469553149090913 1.6341516578442832 20.576138289593494 0 0 0
415 1 14.848576976942725 1.6798101154235345 20.559326055256626 0 0 0
509 1 15.585234699741687 0.4820923391648186 20.632884814543196 0 1 0
507 1 16.939103248262747 0.44497138153391674 20.506190197644766 0 1 0
63 1 2.1843177850645423 4.123730759880591 20.541532068073394 0 0 0
57 1 0.7591839361266716 4.067420100114348 20.512885896700297 0 0 0
29 1 2.908318501706403 2.8769393021695766 20.60924132018723 0 0 0
27 1 4.2846576480554655 2.8809261823495516 20.608541239361326 0 0 0
185 1 4.977957426355355 4.0994639751823865 20.615827027647605 0 0 0
191 1 6.377703435246327 4.071647199919288 20.70418117000512 0 0 0
157 1 7.06906188520412 2.8373115279637533 20.76152628460094 0 0 0
155 1 8.493933063240512 2.8572881448052323 20.729566947045562 0 0 0
313 1 9.180196758566229 4.093164317311962 20.710802303192395 0 0 0
319 1 10.65082712979235 4.164546868503615 20.572814117965724 0 0 0
283 1 12.686205678001512 2.9081186031491293 20.58707726549587 0 0 0
285 1 11.301186540363256 2.8914752418760767 20.6104339606942 0 0 0
441 1 13.38238010975801 4.097563592750114 20.510467491951104 0 0 0
447 1 14.813041624210365 4.071869728923846 20.5390800660813 0 0 0
413 1 15.533838128734034 2.88394494862807 20.482450072373346 0 0 0
411 1 16.897791738945543 2.8923374115553995 20.54089664712706 0 0 0
95 1 2.190043838294851 6.516503546323749 20.51777980820576 0 0 0
89 1 0.7624546173075554 6.551835594890477 20.496768430856832 0 0 0
61 1 2.9061467813436 5.293117941509801 20.587801372896394 0 0 0
59 1 4.309301300283361 5.27624439135769 20.610604666768882 0 0 0
217 1 5.002825733593462 6.494729112190376 20.49963803399268 0 0 0
223 1 6.365720048649687 6.538933132020606 20.641765778809223 0 0 0
189 1 7.085573238930407 5.317021972717493 20.68775139217724 0 0 0
187 1 8.484933172490527 5.354443474066646 20.642374634600948 0 0 0
345 1 9.24979777247544 6.534499931964847 20.774529955498956 0 0 0
351 1 10.679062573995122 6.550828813235738 20.56045709849255 0 0 0
315 1 12.737862288860134 5.284020215301407 20.52798858898723 0 0 0
317 1 11.386089317567984 5.32454125580264 20.583543100921943 0 0 0
473 1 13.44093483867878 6.556011588346952 20.538283405423314 0 0 0
479 1 14.8432769561464 6.600402801664435 20.526158535203397 0 0 0
445 1 15.51291314830295 5.3354071440025175 20.49254747845868 0 0 0
443 1 16.9060184275373 5.291881932841117 20.508819013844473 0 0 0
127 1 2.156873772841335 8.979932698886193 20.473131542664767 0 0 0
121 1 0.7882015566825856 8.985911595435933 20.513412381878346 0 0 0
93 1 2.9432143119029064 7.750332033467103 20.550330561930245 0 0 0
91 1 4.300319618133622 7.71598549886112 20.640858253191066 0 0 0
249 1 5.013588690218474 8.97848382152556 20.54879079171245 0 0 0
255 1 6.388311787520135 8.925986701484756 20.640121210812943 0 0 0
221 1 7.102478168871866 7.723812795021813 20.64851038780644 0 0 0
219 1 8.508058500834025 7.703341417400332 20.837074668200845 0 0 0
377 1 9.222765699484595 8.910217492297935 20.801898927376314 0 0 0
383 1 10.618663869366078 8.907186962364019 20.674091562724364 0 0 0
347 1 12.793030435560947 7.775431615178548 20.6036132544107 0 0 0
349 1 11.337432878990167 7.7633754343665995 20.69010620937533 0 0 0
505 1 13.439601938251634 8.99578933407551 20.549456248821414 0 0 0
511 1 14.862572323030138 8.94157126483861 20.51999038876506 0 0 0
477 1 15.582136986813298 7.766639379551235 20.543130043989898 0 0 0
475 1 16.87311468906932 7.767090089001917 20.46998501723943 0 0 0
30 1 2.2161453999900904 9.7324977073762 22.49651215292491 0 -1 0
62 1 2.1717040794819087 2.4892806694854777 22.564549992083656 0 0 0
28 1 0.7950584857600682 9.791704084735638 22.537736391385824 0 -1 0
64 1 2.880355237691586 1.253738077138905 22.496004558249666 0 0 0
186 1 4.265924553562658 1.1760874730799102 22.531748682751537 0 0 0
156 1 5.01026132134999 9.734266972047134 22.54013750538553 0 -1 0
158 1 6.38128002865655 9.760801189968568 22.65691562181837 0 -1 0
188 1 4.983360627272676 2.4866312136547766 22.624292757274656 0 0 0
190 1 6.432750154206985 2.4558942411244984 22.699586567327458 0 0 0
192 1 7.145997460399545 1.24347333680175 22.80078954716971 0 0 0
314 1 8.517137211170933 1.23063790794932 22.731004538496656 0 0 0
286 1 10.597806826895036 9.778977522809232 22.64177644910376 0 -1 0
320 1 11.307646046876073 1.2822921201767303 22.664959046953864 0 0 0
442 1 12.71153850429749 1.2406342575124523 22.521486835804847 0 0 0
412 1 13.462775274613076 9.781736367962289 22.541203386405513 0 -1 0
414 1 14.843679035377109 9.750194898452131 22.52588605999985 0 -1 0
444 1 13.434338681314266 2.4761110291981603 22.67117125153758 0 0 0
446 1 14.794048153197988 2.4365720491023453 22.522702705944916 0 0 0
58 1 16.91440870514074 1.275080902993131 22.449071102350302 -1 0 0
448 1 15.554063801074694 1.2543705158748886 22.694219935458673 0 0 0
60 1 0.7706988848439151 2.4431821222004357 22.50723821238336 0 0 0
92 1 0.8127011648187822 4.910522371996183 22.51674839029738 0 0 0
96 1 2.8807343358898496 3.73452233873309 22.574876945788283 0 0 0
218 1 4.292297509866989 3.7240981855951296 22.575582869640016 0 0 0
220 1 5.007120788086645 4.97735171987398 22.56149105385795 0 0 0
222 1 6.382487766199782 5.003585971138631 22.650185649936446 0 0 0
224 1 7.0848227588329316 3.7245388375899147 22.653575092973604 0 0 0
346 1 8.470229491188588 3.7343385878473447 22.68894999494193 0 0 0
318 1 10.638556824494716 2.508173709672259 22.63623781613674 0 0 0
316 1 9.202853118585928 2.4780272270484267 22.68162466834748 0 0 0
352 1 11.337913999136486 3.7176196288731926 22.552627488568376 0 0 0
474 1 12.76920605852453 3.6883893348599655 22.58484834968074 0 0 0
476 1 13.434824710530721 4.898351424478478 22.5548327433734 0 0 0
90 1 16.916637869220747 3.6773210340383335 22.49702559409669 -1 0 0
480 1 15.488793466139752 3.6697198269697098 22.46640715315967 0 0 0
94 1 2.1538058371470545 4.92997495406074 22.577056961678252 0 0 0
128 1 2.828925765986167 6.248628400071392 22.521434399788927 0 0 0
250 1 4.345328699847793 6.19719141070451 22.477933866668202 0 0 0
252 1 5.032597835392826 7.425534553783012 22.63934861117388 0 0 0
256 1 7.111942563254429 6.22022676353547 22.675243384655523 0 0 0
378 1 8.47303881939949 6.195883578871622 22.701382258971464 0 0 0
382 1 10.615910062486725 7.327606735849624 22.64150693889969 0 0 0
348 1 9.154399769294502 4.949319874675924 22.664311768262074 0 0 0
350 1 10.598719132229176 4.892299988258446 22.703840525963063 0 0 0
380 1 9.191971692347682 7.446038932449278 22.786776479918593 0 0 0
384 1 11.2942929602216 6.083991644788668 22.565163956271945 0 0 0
506 1 12.70166049260644 6.029594876841346 22.501952158212813 0 0 0
478 1 14.842919992502312 4.891050993349383 22.567504380046657 0 0 0
510 1 14.801375873816394 7.321924286523886 22.462965658470203 0 0 0
122 1 16.921770946839445 6.108917118834876 22.540820304583217 -1 0 0
512 1 15.517954206999446 6.097497568002184 22.542545621562823 0 0 0
126 1 2.1340096217851103 7.433875753939742 22.478062097149348 0 0 0
124 1 0.7803575012459184 7.333486164496582 22.53383358199406 0 0 0
32 1 2.8342966633182023 8.585194287063743 22.554310622678706 0 -1 0
154 1 4.321609179043407 8.625799774667708 22.540569260923398 0 -1 0
254 1 6.396262307705547 7.385769406664817 22.62893730412064 0 0 0
160 1 7.105794553750363 8.50142214734302 22.603907297757296 0 -1 0
282 1 8.445294514696105 8.531473839124432 22.771908218352436 0 -1 0
284 1 9.177004109660537 9.780904530273174 22.73296004185346 0 -1 0
288 1 11.35494776494686 8.549505939242945 22.650204173252455 0 -1 0
410 1 12.708106704761665 8.57087888887485 22.577600044323923 0 -1 0
508 1 13.387991435097026 7.323129924536945 22.583950674207973 0 0 0
26 1 16.96694649295008 8.546941180075804 22.518139325086295 -1 -1 0
416 1 15.537033893145436 8.555618243553802 22.49328077847188 0 -1 0

Velocities

33 0.7419124802953031 3.541516611545227 8.484407810131916
39 -4.663835589223287 -2.9144860339258343 3.4393976105992863
3 -7.7638259365460796 10.360480601079624 9.533884709815135
5 -13.278523071374748 9.43656855063603 -7.698583199432415
161 5.938314532241333 -3.1403948733999303 -8.056541748766962
167 2.601382300599204 -5.19930980572383 -0.016881493354085345
133 14.089377361676112 0.17908069929548723 2.5749082517426687
131 -15.845002246252683 3.5066317177878017 2.016162436467865
289 -9.150244732655715 1.6506137558205778 -0.28107181766770795
295 13.326838660933765 -7.922465642087391 1.6763676163831522
259 -9.324096886930922 0.4942594453407731 4.8488164916816086
261 4.4333234183646315 6.652942443825131 -23.38720629260019
417 -6.557926926275703 -3.2207027392692864 -2.4683248186375155
423 1.0196579311150615 12.042699885121804 16.996943805416116
389 19.550076952080754 13.223220426446323 -7.0723094495278165
387 1.0322508529196934 21.156244135121373 -2.092951803937929
65 1.6905091518937758 12.176571855349994 -7.408534609443114
71 -0.37817614320622156 11.012152164479314 2.737715915131655
35 -9.780903435039344 -6.237078521147456 -4.210591143564994
37 -11.816965155465153 4.981048522131094 0.4580683976799765
193 2.6364192948841105 -0.10452313677216915 9.906198980611888
199 -16.108117780079873 -9.545385208685463 -0.8049867896581513
165 -10.937433475675574 -3.403655630849939 -7.701468372073632
163 15.407434267355551 -6.250018530364881 21.022659792685285
321 10.47247786338005 -2.1084504298854667 3.444418255207177
327 -20.87927081798708 2.595960117924179 -0.990253973194291
291 -11.51854371213243 -4.9423320127407155 -10.239589133320328
293 -3.3722085068202654 23.277032383613452 -7.688142194297185
449 15.853671080509013 -5.793405488651402 0.5080383748688138
455 -5.760860847203644 0.5844975587870374 22.035654410230183
421 -6.420599491415931 -8.002144331587509 19.238730531910768
419 -4.171173150700768 1.4713699393128106 -12.606669200718427
97 -0.17201134132646756 12.141704055388267 2.580000751007238
103 -19.429183320279588 -1.2751094190114887 3.4056738443144177
67 -1.8557624962723127 -11.500153183991065 -5.085161865603459
69 -0.5156952284127354 4.585295111528709 0.9034157399096537
225 3.2400394588382357 5.459768961039476 8.976431977014235
231 19.448305589919407 -1.172939324545235 -1.3510689573891905
197 5.054450862959652 11.74209757905557 13.514582334838723
195 -8.302167304508416 -8.685317641208766 -9.873630897885137
353 -1.0448184902297462 13.854015779450677 9.114280667345056
359 -8.05538705699064 2.2532533463192017 -3.3229030460725104
325 -0.0026705599115457164 -0.9508732560649902 2.97862455965995
323 2.187322436999766 -2.315630343620391 -5.563019437165998
481 3.2524200424848733 -5.569641870728178 -3.9319878230712946
487 0.2724714119957724 13.7651140783303 0.03637079517437089
453 1.1240457189443895 8.611907011317781 -4.419997941897604
451 5.018488531678658 -8.158266087863531 7.476158401721696
1 2.005124065944052 -16.68756164896874 6.550754087518905
7 -10.734597463590303 -9.345248838693243 3.6333786056735082
99 -6.765716141142439 0.7455766653676215 -11.470251368327594
101 -15.574220296748525 16.5066211013874 2.38779500835248
129 17.702043306339277 3.0245629479805833 -3.7162175885000424
135 -1.1725977705359654 -21.192868159599172 -5.2036671566390265
229 -3.2647543682877678 10.686069790877179 -0.3222054410890985
227 1.6986837101680141 -17.244139667091 5.1555759134058485
257 -0.9364587290154032 -7.568712324110635 10.513877710026055
263 16.030647828549988 -1.5875976533034637 -17.19532481076603
355 -14.292006450519004 9.52478969016998 -23.889275508990526
357 -0.7181952608682758 10.669354299883851 -10.944064985362509
385 -21.536340085596965 -9.11718834404698 -5.676698683365285
391 10.286388714861348 6.42468898109661 -17.604039045563262
485 -12.666898281139725 -14.011944176079265 5.023145171101244
483 -3.888928405217868 19.31300023163643 15.853445997516104
38 0.655555639467917 16.973392497682116 13.673139745785946
36 9.386019527845342 0.6669819988491357 -6.849300044149453
40 13.288418097555276 -3.3740065561017634 2.580601395166478
162 -2.0505406251731135 -15.630810261882832 4.301383760545519
164 0.025106022037339675 14.621974113522517 -9.85488758631089
166 6.508823494166706 4.979963497572998 -4.137435613962542
168 -4.412955862673074 1.4253067034738747 6.748468960348886
290 19.272103267220125 18.51722960073578 -3.9911641860760847
260 0.4845867390679277 -6.783558580502562 -5.038604921629673
292 -7.047029990638369 -2.8577298819576558 -3.2473811200672853
294 3.2565803058221032 -7.064707600688906 1.0374604329538433
296 4.55020245594969 -9.786620249657899 1.8439276261850117
418 10.083069068967644 12.490494584364187 10.104386433144857
420 -3.2660702494143883 12.500511041759099 -1.5454694942355713
422 -2.5819080620550903 -8.050486627038943 -24.022267771675637
34 6.707189492377586 2.6161235041815436 -18.48973584261794
424 5.0674947899234954 2.3783163323285885 -8.548690638353836
70 20.847699620040796 -21.491858321366127 1.8660370245670297
68 -6.734448321627698 -7.563849665861014 -5.169067600113418
72 -13.677851742663915 6.287731137618264 -7.600376772064322
194 -5.193586533262235 10.811336575639423 -28.326867821885198
196 9.4273788041127 -10.578946741501033 -2.323508453004101
198 0.3759757054419281 -4.227158473291354 10.145344504186054
200 -0.7169734093743682 7.882386676813585 -3.2913537542590636
322 -9.959360207900298 6.130929713254914 15.661234291129041
324 -1.5965685647643177 -7.975419679802829 -13.219442851616014
450 -4.716193107116708 2.2122969460179918 -5.910346295511231
326 5.81976026300932 7.567307864574133 -2.243239819984123
328 14.865856020393036 11.398136901850735 -16.026867914548898
452 9.243952058570793 15.477111279159201 8.183319536206547
454 -2.536406269928447 -0.10630095034479771 -2.208025769520048
66 -7.041948047506837 -9.800516396274375 -3.8640097700885554
456 2.570920626521224 0.1296550894530787 1.2717996439038886
102 -4.680924124755547 1.3928935472031445 -24.471380755659784
100 10.418670562377143 8.005588776914829 -25.54038333955941
104 14.113997783278412 -12.274536845343142 19.179850387518105
226 3.453167220574396 -4.937293359419245 14.340900273536969
228 4.679267926930157 -3.9295941446415994 -12.247347954753288
230 -14.866898917192579 16.757188158353447 3.6028574722669715
232 7.292304600732482 -2.6473689113416308 31.81456588885844
354 11.640123098585129 -3.410214770041886 3.075081695892508
356 -3.637868817721004 1.3840953218558598 -16.88350894072401
358 4.3411375548201425 -14.561357893144075 -15.400714822856694
482 -4.201865230528188 -9.478979561312077 -6.4810898030214465
360 -6.986431336325229 2.319812524828133 -5.783885063017824
484 5.099084748503643 -16.771079672624563 -8.789843736529173
486 3.5898230276414287 -2.0933563563255273 7.167358246080696
98 -7.439020289222813 4.885495692106163 0.9275202939019634
488 2.0704634141689295 7.693866275714667 10.211186477106386
6 13.845294984646053 0.11627412729843324 1.5507104058031593
4 5.477151917271112 14.528135206554705 14.663187152762642
8 6.275004163239428 0.9754741834880304 9.9893356092734
130 9.811105875481552 11.830812365931907 -2.226869500893836
132 -2.605202981285794 -2.892232065425671 -7.315756594397353
134 -1.2052580692266828 -9.195122134230925 0.7622199987739767
136 -8.297343307217776 -1.9640101799442748 -10.257803417212122
258 0.9086293403269293 3.5762447912249504 4.373933951623764
262 0.4091683463991525 0.31514490482726387 -10.102708504325733
386 -1.2854552716681344 -1.34909626096399 -5.451646581780207
264 -7.511357067418453 3.8317797894165144 3.5503017568809025
388 22.185691962595996 8.714672437875743 -12.651781938553416
390 15.578415443291039 2.6573258092992407 -0.7197077608966598
2 1.7733483569270165 -8.097046616735842 -10.599101524104823
392 -8.913561976284628 -6.111052119751774 15.799398427064052
11 -2.1434357540434408 -0.3459871117147331 -20.096237282715744
13 4.457272190451186 -16.63345036060935 2.6160545462920943
169 -6.2671113961525435 5.594308166776606 7.004278469407987
175 2.0237145196866853 10.414788405047078 18.611313020975246
141 -15.840718499130428 16.266899876472998 -0.18712752309591113
139 6.626756272639186 1.5543692737204557 -34.43215210378112
297 -5.107042820580578 6.154344093808797 5.9906857522516095
303 6.25659120120783 10.747029030361686 -1.3859765197328235
269 -5.438540149927224 0.3114105961689592 13.117770441702584
267 -3.5963956887007025 -6.804518466151857 -3.9561666665239663
431 -9.471560855198172 -1.5537116318377493 -12.569546468925326
425 1.7926910198741466 -20.782378291207547 -7.902666167542236
397 -5.158722841914581 1.9199375943189667 -6.7064782563404695
395 1.6618301724482503 -8.661933248174453 -8.488249127216108
41 6.855398173394586 -4.160248311282895 -2.4996857649684356
47 7.038154217725447 -16.907964013254176 9.79308712769666
43 3.5022252651153174 -5.679868776691858 -1.2647061437988594
45 -5.556770395877006 -14.58694672384054 -7.899046968914673
201 1.2739566419535644 -13.047688533566552 4.669086687569812
207 -5.112675494560104 2.755745006879687 -15.349356576849194
173 12.423463425011093 6.462589172400188 0.8279425780560337
171 -2.9429576982583603 2.362001016535074 -12.760365308299459
329 -0.8891584175985535 -2.1041701133927075 6.334442385566538
335 -5.005662744995253 8.139933227760425 6.069321304776138
301 4.70007750154084 -16.85840402341881 -12.344718239921566
299 7.650924947657238 3.2921143373644455 -6.597054607959195
463 -13.30682095308283 -4.366672530783178 11.841472681893528
457 1.978318724682363 2.024788582729476 -4.464499805498686
429 2.3002774413035514 10.80658054291333 0.6870420090287473
427 -5.159275576945051 5.582811934996501 -8.485918852565057
73 -13.653983662681638 -14.15523287496906 2.6166552024347167
79 2.6133600165109003 1.6407137184918203 13.988683432732754
75 -0.824992358366371 -7.580526728649939 -13.015757367718537
77 -6.663319668768737 6.528069811289953 8.819981178831563
233 0.8300877878201528 -9.44542931059954 -17.863374962264363
239 -6.362411506013121 -9.241459770150295 3.9528910986811083
205 -2.8056580776508824 1.9899090018609673 17.721888569937878
203 8.460880037710744 -6.20371687446386 -5.835381118474577
361 -3.2478442046371545 -15.830132929668224 -4.447371342945473
367 -9.409085547083189 11.6581670269705 6.101182910637117
333 5.045353010869298 -5.510949119177122 -3.1047423832278267
331 4.51186178940425 5.482925224027022 8.95930512514021
495 -3.9159895653292933 8.139800300886307 6.51009614782189
489 7.094821044677749 -5.657399950276972 9.415756590404504
461 -16.881884551996176 5.505151438499301 8.309784546482938
459 2.441226873744636 -8.483534877575172 9.91373900511992
105 2.796050888817021 12.566177380650219 -1.1052624476192001
111 -1.182547136783819 -0.725075678114504 -7.7098411678162195
107 9.05035731749209 -9.456610825441732 -14.629368305385322
109 -4.770832881501455 -9.703978868908552 -7.355397343922593
137 2.1479387999318047 -11.897316888195952 7.770801402680268
143 2.6920319245158133 15.898034105555622 0.2637394996440834
237 -17.16882525592546 1.3287576044374647 6.041584835804464
235 -9.480461514414582 -3.5321075727542426 4.681794115036928
265 5.283966913635451 12.25592842040865 6.922052313963206
271 -1.2881257942685602 2.0803211592362185 0.682456713575034
365 0.06353653783224206 8.258724070147442 -19.66904652095854
363 0.7836122572096197 14.3225992345876 2.5780931563744183
399 1.021594189566602 5.593387018146989 16.38461868467515
393 6.259209917910529 -1.2337796077039287 8.435333913557916
493 -21.022407670823146 2.3964421308154993 11.711981817981092
491 2.1921964161962735 -5.832324277113079 -7.584635404051676
9 -3.4274002260823178 7.019887299284455 -2.6353852398763173
15 -1.2948646900820449 8.121760493224691 -6.276930636077923
14 8.007674645017214 3.250824974136568 2.8234448232180145
12 1.5590421827804124 2.707959349294702 12.384189669544567
49 -2.289173853791397 -0.7603689050005891 -8.059115323792419
16 -6.000032191502791 1.7183210221402534 -4.13303058637767
138 9.282388655758258 -2.6420080825311962 7.1570448641491735
21 -7.33139266620457 1.5696845859435176 -19.64965815976351
19 20.196696079433593 -8.468645175061928 5.010157044414429
140 -7.5812179548874665 -4.546806984391144 -1.7777213627803246
142 2.8085733869384906 1.212544539181357 -7.483472133576565
177 -7.068341223660153 0.2687843503771682 9.741537881603607
183 -0.4644181209214979 17.298639287406605 -16.00292609012178
144 -9.183642923490755 2.997888726559796 -16.37903212629836
266 0.42796712301500456 7.06249517349698 -8.37985989829845
149 -13.74873173194426 -6.08062642354286 11.855874559015362
147 2.803421717042054 3.2263770670607874 -1.1636617393268405
268 -13.065066482106355 -13.053743901233895 -1.4383906350257487
305 0.35083572629511284 -9.175751364041247 1.9366528224730042
270 12.375197725882263 3.138543822003956 -2.980279875094301
311 -5.250127442576658 -10.827153576739658 -13.98553602001061
394 6.115793387453111 16.518498863368222 2.541821960865931
272 2.873858853266638 -15.33147216225616 3.4217218446363775
275 -4.524541129925071 3.482178622625303 -12.953080771607494
277 -6.7409809737670985 -1.8328841599348695 -4.748028252091132
396 0.8283812381765883 -13.780251152260343 -2.800261101517599
398 5.210818208386019 -3.9379927466494236 -11.799936679027557
433 1.438407485861571 3.6884935275859068 -5.746729333661408
439 4.758563183907276 -8.7646717348221 4.204898329213661
10 -8.399828763553504 -17.050673157885786 -1.8149611007056525
400 -10.577523335960532 1.6195760213809975 0.3018242961539273
405 -6.578565760258121 8.402530864703095 6.179618732991386
403 10.885840832839422 5.343348839964974 -0.8397088986812973
46 -0.9897497729474604 -5.203782173094076 -5.660903993136546
55 7.249344022132437 7.7530909663595 8.347883656550199
44 -9.511610248993117 11.960450131231399 -13.27308123743955
87 1.6843423536797655 1.693425943326985 -2.8862240289572996
81 11.713335340248118 -14.227175137903663 0.6980472395660903
48 4.027621533358928 -5.396471722084887 -7.174127776932539
170 9.452919206417697 16.251126033866644 -1.2021696733564822
53 -7.88438802631163 -3.340213975733748 -1.6241879072225163
51 7.224238188556081 1.1696823824694982 -5.301964391829666
172 8.301730194848831 -15.023750666611098 6.98004132138907
174 7.569494160034147 3.1240114773830676 4.511563907000943
209 4.453045927230951 4.390319896171264 18.48711805846698
215 -8.151075869530251 -9.216756801506216 20.02978773119397
176 9.256447579927725 -0.37994648900916855 5.242853368424779
298 -11.596758148358974 22.153980611360968 2.8618704218773603
181 2.9162162895889505 4.770315959878854 14.816375501811873
179 7.562067378720049 11.323536298162685 6.207287913570319
300 -5.595781760141283 -6.771947262725335 -1.8875121798143655
302 7.919885703435608 5.429389826827798 7.5303964158716115
343 8.371326641087121 10.286333289969779 11.88692199980083
426 8.069780679597915 10.028782268331948 -2.7793181307349775
304 10.684453801236904 12.201230614756193 -17.421708403839595
307 -10.116516598248962 -2.4330209045391404 9.527214214821273
309 -2.3074528300445776 -3.8562302221295166 6.576315009847098
428 2.8374573381720385 -16.69778560185489 -0.6508855510430942
430 4.367234596947738 -13.599151643048565 0.10076566604241506
465 -14.134098884699013 -1.4922977267693092 -1.6080026416453765
471 -5.442747182461608 1.7624064414885787 -6.849381203328786
42 -10.43850986296085 4.35147851546161 -11.885389779967936
432 18.031151051316105 9.822291074999963 13.465540835618537
437 -6.193483238384697 -0.7330850909274856 -1.1597028779549217
435 7.305125211896721 -1.3228947113549263 -4.974913371495723
78 1.023553391486681 -8.773302160017034 1.2098428971753314
76 -4.081706565087475 3.818912688083235 4.440384758571542
119 -3.4890228766144693 8.79779316598881 -17.62702312249405
113 -0.6376498267734393 -11.544914164132974 -3.252170697321427
80 -3.0843311938326816 3.80702801586561 15.313022552489066
202 0.23412522804433705 7.016889694402843 14.275268321103896
85 6.348811918427871 0.6688222338235696 -5.8175045469893165
83 -4.006140202698505 -5.028569250905903 10.5738044116751
204 -6.97855291787743 -9.112407331530433 9.832197932126345
206 -1.5097340138672684 -2.0778032249496396 -19.760365645936865
241 3.0607243339834627 7.0691343762260574 -0.29025318880431067
247 14.903826763992882 4.377844070320792 11.19430796820767
208 -7.036066789727737 -7.54347779448701 -7.34522772905604
330 -4.807493771557862 -0.6500362936813407 -5.491639123397868
213 -0.22999804805974342 -4.9315787584231146 4.529428485126911
211 -0.5452004936394156 3.015005379953101 1.775534428630748
332 6.829444558551734 2.1744428386159202 -0.5651484710202676
337 3.4426560120225345 7.624547663904912 2.8466659977717748
334 1.8305427962935419 5.15162504167958 3.047515343086628
375 0.22954254397975193 14.216937995636929 4.2841963579987175
458 1.3282765829721377 9.773226278873384 5.117020490009853
336 -4.967026146704826 2.366919771729568 -0.09025759395519477
339 2.8351876598694363 -3.404378217980076 7.439243688217058
341 19.36183738844703 -5.125591424970714 13.933825840299589
460 -8.197124019937098 -10.597106527361223 19.457803403042565
462 10.126341697751009 16.73153596168209 -3.2138312988832873
497 7.860254060587173 -2.313533776451304 13.205548705746134
503 -2.0665445157946123 6.92657835709843 6.390015902948152
74 11.563803432781485 -3.089930268354331 2.7535698840512053
464 -2.848003112535487 -8.977909096491665 -5.1935207006017015
469 -17.502428715576343 -2.2658512870332186 1.8927550914053521
467 -6.403926742284033 -4.189150932868179 -16.83955503188574
110 9.4303370709609 -6.799111338935284 22.796508413966325
108 7.294914453237381 11.883373810499165 -3.8503722944568315
17 -12.531148655487318 -13.67313810352743 10.51234175277053
23 -7.986894343876439 7.934656179637427 -2.198416122679631
112 -6.268391878283605 2.0192383440036283 -19.936325155501386
234 -4.627579521086142 -9.176972594780823 -13.225674302279726
117 -6.374827858309039 9.273354692362181 -5.876896352849073
115 5.732851924261601 -9.504643493036168 15.671711170805512
236 0.19710978360643186 -0.7847243190106737 -4.28031139967073
238 -7.458701688965695 -4.668451778441465 8.702262568761308
145 5.52774183358364 1.2445221075612314 3.3630670650451697
151 -4.822380490553404 6.156658829736018 11.553466435946294
240 12.732104869251962 4.354571728135962 4.222656466588681
362 3.4506276098378708 -2.2989257980676236 9.502945976199843
245 9.33490774624631 -1.2565914327306469 4.493352969500007
243 4.063473615589447 9.094876832196661 -3.276100305821127
364 -4.12082356913727 11.822951897893375 19.942277872638336
369 5.41525976692097 -10.69132899133379 5.01036701327267
273 -3.3061832968351 5.626947874116099 7.03775716609341
366 -9.405645972101823 -1.747892634728174 3.5864593467978634
279 2.0254918456938227 4.736166978137912 -3.687426376979101
490 14.258904854719145 11.299791900063346 -11.594330897040084
368 5.952888389651639 -2.5215722834051113 6.584476629576005
371 8.04388676315363 -9.337151381602794 8.412525883820557
373 -11.51888631218237 3.394037391824729 0.28555725004814386
492 6.57409736832097 3.637591315140072 -2.3589699158950928
494 11.94058817683168 3.393887154909291 1.0501237346006833
401 8.669680545263729 12.821060683082075 -11.205725888958945
407 3.641949820868128 0.8653506043266256 -13.818556373690233
106 -8.566442700255987 -7.733316914294063 6.146719176898377
496 5.208726817861261 5.167867687481685 0.8462589519891058
501 7.844355338955762 -10.660040448822054 13.80985704749963
499 3.21172630499239 5.17619049235034 -0.4980484069489176
118 1.0043014454205124 6.264566394301301 -13.098447773555684
116 2.4509969399580447 5.968303787216936 -1.1887178451992042
24 -9.02967677102413 -4.837743170383522 -3.800519575239439
146 0.9492138032213691 -3.0502670065527338 -26.163894879031574
244 -9.885313559499746 1.1359740801169051 -4.06019286327012
246 14.353174978193621 18.371292920999704 -10.1616282021928
152 4.1965106367088305 12.46301450415491 9.5442984697271
274 4.744964552390516 -15.26513450904097 -4.815589868429147
372 15.232009929662505 15.832470068739966 -0.0633941623976239
374 3.6402920306107256 -0.19448449249369817 -1.253787388302648
402 -19.173872401095576 7.4532610996162845 3.711871184910418
280 7.765296907224808 4.2336213670949565 -10.605780346856951
500 -12.123499245407343 -11.239592344713051 1.7865851284828924
502 5.403618875832735 7.435933127017605 9.888926051797805
18 20.55551284407655 -2.932062531421444 -2.8458446174448646
408 -4.075171452122763 1.5359933003531523 -0.7560109209677501
22 2.2730453701105757 5.108892708379594 3.7143388891147393
20 3.02092399185061 -11.185884912541932 -0.8244220720247526
56 9.909242604473697 12.868640892155764 -3.1191120607474216
178 -9.453128534440546 -25.58382731650242 7.558506803055489
148 -6.965122814264815 10.672054796425162 6.256424209177388
150 -2.097403376995583 -10.570506798984976 -0.10062618107737355
184 16.75366739101199 1.6902822907656698 8.448961280863239
306 10.205968480350426 4.55105088213872 -2.839537707850352
276 -6.282186006875456 -4.404473498697513 -11.066264038801153
278 -5.822439961876107 -16.835130959595148 7.774333698536697
434 1.9005978948185571 21.416599279316134 10.62030068633337
312 -2.566656308987508 1.2022082209944283 27.454083458038895
404 2.9933149498861384 2.359973145019342 -3.764687554522649
406 2.2329024034802747 0.32616987828429245 0.25896642362303496
50 4.767662163461384 -1.6199686959932031 3.3146095638977537
440 -0.25340706237902977 -0.7559655426854339 2.0260501970948384
54 0.9511866821750363 0.1309850809622346 4.046923845783176
52 13.269696799809296 0.5932166963986522 4.406723690736313
88 -6.039138463295826 1.3015428806664147 -0.015210940705888631
210 4.759829930055466 4.861540046655997 1.5493864678217453
180 -11.876889181761571 1.4004890147680675 -15.100702387569157
182 -1.405032567147143 3.5875486886320065 -0.7004920074391419
216 9.940455704035802 -9.603480226398766 -2.053599867969966
338 -1.5239475766769484 0.00912372381703222 -3.355129933228434
308 -5.00370316103666 -9.570093000966505 0.1713541081985697
310 20.36459402334601 8.773972467298842 1.9343086287408209
466 -5.638145801424871 -7.290976636847618 0.536592487126879
344 0.850748776677375 15.091388541675189 3.443694437087186
436 11.166922825708939 -7.468490286599748 7.29992742828702
438 14.704616788880537 -5.138267233712338 4.210444509794299
82 -16.57334517455813 10.803479300032228 -2.50261828429738
472 -4.001868577143663 4.100871273154705 7.024418698946239
86 5.2398080966408545 -3.1978229809230205 20.085078674863293
84 -9.42242041834854 -4.736220648443311 -4.329057943903395
120 -8.261930048630044 3.8341503128841405 -11.220649464255175
242 1.6116933338290371 2.314464837892315 21.271564091731957
212 -3.318344200482836 9.00878950050077 10.542606214067956
214 -2.443545251958498 6.096830627429987 6.520803076305847
248 -15.349126003052536 3.235091997807384 6.062692427354772
370 -10.18688879436837 1.47832332322155 -5.61180740389608
340 12.881268080313498 -15.985692283928378 5.929844751194077
342 -0.3991270355298033 1.9924636243466889 4.086980014113744
498 -8.94894301094004 6.966078229234875 12.41683306604701
376 3.013588756407883 -9.486257405450301 4.372954738584212
468 8.828160200605804 4.457085532082208 12.67941715512122
470 -0.08819385483856405 -1.6570544162779914 4.01100169131388
114 -11.36006804294988 2.8475596123116573 20.486109499041028
504 6.119973891607828 -5.42901577329782 -1.9532310014752376
31 0.6940577200199374 0.9330690872399031 9.693709849384582
25 3.943301993382759 -10.327688674804161 -1.4337475297533202
125 -5.31385050314782 8.41493037769121 1.50345565528467
123 4.683824822464297 -7.050042793356451 7.384381602958252
153 -8.746089234350615 16.518507317072885 3.8242487828206873
159 -2.680422275378635 -3.940534042512681 7.0342806660416155
253 16.832418312413964 6.899527960146359 2.892728998122369
251 -6.64059339151018 10.286048913763569 -0.31561883401284224
281 -3.5127587011343775 7.021299554995534 -9.022164437023337
287 9.708672210868162 -8.326365052433125 13.780604424956499
379 -12.983912658193628 -3.667136202612399 -6.479017493604979
381 -7.431715427842055 -16.307505787612616 10.822410444980811
409 -10.92975228373094 -4.506490386138308 -1.4363176063195735
415 -20.328778358372283 -3.1139387007736428 0.5118990103653649
509 9.44932352497275 -1.0616562713399624 2.436896074759428
507 -15.996713618701069 -4.412971046515419 7.521337198462059
63 -4.506319971121771 9.947301476221435 13.311617442733278
57 -4.966294300823497 -10.61693769727752 -7.280059198299232
29 -19.43874434356552 -14.798403766377637 -15.258712422854753
27 -1.5539058305372808 -3.553025231725902 15.205128238157464
185 2.5076942988103617 0.2752890741805733 -11.176161264382824
191 9.64411503337195 -12.525884383023048 -17.275578179665494
157 15.058023718202362 -17.077461040448178 2.229223702503211
155 -17.050683999969962 -3.384640730129672 13.244703403901156
313 -6.044121220251082 -7.3446080854740465 -3.05217729640247
319 -8.66453006312964 10.591909403734386 -1.2697283935657884
283 -4.34506526300646 -6.664715955549436 -4.004826504968892
285 -3.6870728754054314 -13.560819533508422 -4.636952392009808
441 -12.990045422049237 -11.574181813448751 18.84094637972112
447 17.479101484492595 0.6202113450365857 2.095932774116107
413 -9.621956116809658 -13.747659927043738 -7.856698783010766
411 -13.925531325573386 -6.111933290429407 -1.145095399917642
95 5.047796613446174 1.6605842284235737 12.51216303095592
89 -5.523604285339256 8.038496016823489 -4.2076106233488595
61 -13.777731641563205 3.30959519721686 -6.844080783547346
59 16.945532350155474 10.788589608274458 -3.619391452093434
217 -3.484150648818342 -11.976131110800146 -3.565751987613774
223 -12.96847458130164 2.124333304186141 -6.348830489059009
189 -14.903355209651082 2.0321569760821 -3.2794452349704017
187 14.43070046094904 -22.226133847946883 9.149504568780854
345 -0.39897998864936646 -3.5777171013290636 6.673977585554872
351 -5.615153640917534 -19.623785721789922 -0.1845203515013892
315 -14.966366670309993 -2.003408173120931 -6.127470654156044
317 -15.326692543752396 -8.551989638789715 -5.603036984204509
473 -13.607377212775399 -7.782221148825005 -21.915181185890283
479 -0.11300730309220497 1.753523556033854 10.797532080394967
445 -4.442119950294335 0.33638598394955616 6.64181575971768
443 -18.657885068228527 15.540659438859821 5.797531553868723
127 5.713351601823643 -8.69428343739554 7.273654595728328
121 7.977518567229748 -11.166390212345998 -4.560546314451527
93 -2.8413419175080867 8.974922349312969 -4.701681143133745
91 -9.346470274242758 -11.20527715370406 -14.32722813166174
249 -4.298969078705517 -2.507386796401357 -15.789128489594864
255 3.816068358958454 5.2656847049238475 13.288509390014568
221 1.1867502141679374 8.03969663421141 17.18711122684165
219 4.4825855779716886 -1.2827751411146089 -4.821529796375957
377 5.327916104021433 6.45029636711111 -14.391994362899833
383 -16.908850702746076 -11.796953426681199 -9.98925071020689
347 -2.0170518103675037 10.808288860873802 -0.9265354469439907
349 -1.3451048026484933 0.02698050263090605 0.07994982152380957
505 10.339491420012092 -8.168061176789065 7.809431064524197
511 -5.496081891155048 -1.9590570856812886 -16.95787792634409
477 0.6952361434127678 5.024855231492238 -4.441000879687286
475 -5.141511868507375 -4.338103350518304 -6.277334487736447
30 6.660725543621565 -1.3083219536451913 -3.544066219097758
62 4.538801904882983 -0.5420799345627405 6.555016046648913
28 6.311575895040268 8.167018473399443 -3.0710222111657344
64 -0.4156792446854728 -4.389216677975449 2.327640900432267
186 -6.049222176115085 -4.436307099950406 -19.20704947950323
156 14.095535559031847 -10.166933141801099 -25.55597033468592
158 7.573128365860329 -10.509531384027595 0.604869318751994
188 13.249365681874204 -14.429772912317802 -5.6707082014508385
190 0.930664829513598 -8.476824308093143 -16.0246056912209
192 -16.43882718122679 -12.942042862670998 -13.245334309393666
314 -1.4833203040955665 3.025355578913199 -12.94780373061967
286 -1.3646240571537014 -4.996570489455245 8.908764362090896
320 16.155285067277287 8.012000065325681 5.141491313023388
442 5.163755236158984 -6.480594684678121 -5.000872404762051
412 -9.282401567463948 10.138010593825284 -12.37816477731896
414 1.1537704675450788 1.122540951132941 -2.994823893186669
444 15.246917523478624 14.497930357260278 -6.2526554752682335
446 1.2740113749326536 -4.740696195857861 3.9963684284770946
58 -1.5809727009008263 12.966874467080034 30.13856845371602
448 3.921535325476619 9.724039632795499 -9.217960405167403
60 -7.399711790042802 -0.9259276972286216 21.394042176972576
92 -14.134731799499592 9.655410400955974 1.9615922203800729
96 1.9080363135277014 10.21765692643452 6.95901040524716
218 0.9301243118770688 17.960974528485565 0.5053723792811476
220 -5.6854755574771545 14.152094786961309 -7.124480619291298
222 9.538332751984573 -2.6888016050466916 1.3778721884122402
224 -4.9144633728954075 3.4890061888968944 -5.5683389492201805
346 -0.05961131720720791 -8.506614655697962 -8.574706858655297
318 -7.069292677727886 15.090242546205054 0.4426693454614129
316 -3.156285220993798 -7.432555205724834 -4.512297843014957
352 -4.759636380411646 -7.689804314424323 9.287621942061103
474 7.210502233508289 0.6381024970820349 -9.203155187416813
476 -2.9344364506212943 -4.071942434350716 5.609567131581398
90 7.56449486853738 10.17616062047937 -20.625880141704126
480 8.632940941281753 3.4366994577163457 -12.47666803654266
94 8.602405802437575 -6.794577326048111 2.36536113626602
128 -5.204548089483395 -9.012797968947735 -11.429389369784447
250 2.1674307535559607 13.308968207142138 14.31944891650088
252 2.1470166144995226 7.9598276001722015 7.3487748779276165
256 4.875812503494547 -3.1006374493286897 5.837213476763143
378 -13.73951982004492 -8.816636797029645 -12.441512792739015
382 -0.0009454576841242523 -0.9793747061695806 -4.844416432327896
348 12.79441206286794 -14.02644830280473 -14.569265350822775
350 12.720050977430729 -1.2948962470952936 9.478006801918575
380 -3.609298815062202 6.071817384690545 -0.732983870343869
384 1.85911601466387 -8.053474410192345 1.9269020919816704
506 2.308916973440968 8.383122664865827 -6.841856242478981
478 6.188873319414265 -15.297008274357111 3.357852076132096
510 -2.8599485362588006 5.181050504429808 5.062628285252963
122 4.570699805327899 -5.057861353587312 6.305606379466186
512 8.299443404664189 4.441904468291425 -0.7768524822907918
126 0.8560429626367415 -20.473427040173288 8.041457916551197
124 6.405982506626619 -4.878308466987874 14.555405564805577
32 11.513513806734942 4.321091288824178 4.182415964110234
154 -3.0818415505346985 -2.5761174399625717 22.513451107638303
254 -6.265983878269568 5.679006884101881 -7.105918048347221
160 -1.76483948086279 -7.5282763176612395 -6.853728695342344
282 -7.528147694919621 2.612657473344843 4.264385088067671
284 15.188963402219434 -4.164114545217198 -0.3066853135941892
288 -5.563153409099924 -5.069019834864813 -3.969858844169956
410 -5.806883787594009 -12.952249811210791 7.031231291760098
508 4.327730163241767 11.529511705244067 -10.424519723953752
26 -4.802084204468466 6.349676298595227 4.604969610817599
416 15.126055237377471 0.8996044289961941 14.837040752585192
