LAMMPS data file via write_data, version 22 Jul 2025, timestep = 200001, units = metal

512 atoms
1 atom types

0.10551130526264352 16.988383972299808 xlo xhi
0.092006912063475 9.777158127937208 ylo yhi
7.4255790869192975 23.786712913081722 zlo zhi

Masses

1 12.01099999691024

Atoms # atomic

37 1 1.1263924438380155 1.522558503406814 8.611589798850922 0 0 0
71 1 0.46882398752991084 2.700728169756524 8.281371813238307 0 0 0
35 1 2.711556254220357 1.4738072266416091 8.647985907695453 0 0 0
193 1 3.2550567999920217 2.7305601173115406 8.500005208279505 0 0 0
165 1 5.481017131502016 1.5383700422619564 8.444979126203132 0 0 0
199 1 4.619510506013571 2.7964819518642012 8.407724638309245 0 0 0
163 1 6.8226396702651675 1.561130177294775 8.449934299231428 0 0 0
321 1 7.50855139651506 2.602625514805021 8.653811236798065 0 0 0
293 1 9.600491026068532 1.363890893419347 8.341643237926823 0 0 0
327 1 8.886489003391862 2.624759505458277 8.195717911435768 0 0 0
291 1 11.053551624223287 1.4179343132480722 8.287502638205291 0 0 0
449 1 11.749689685872468 2.657419837307659 8.445476640110634 0 0 0
421 1 13.845141486107341 1.4933728953881817 8.436580080320752 0 0 0
455 1 13.09560269089296 2.692891272209549 8.164479413699413 0 0 0
419 1 15.203144761107517 1.5194762398697244 8.291749601931413 0 0 0
65 1 15.909965504609776 2.6855146607123377 8.518728169823516 -1 0 0
69 1 1.1861221235438442 3.8310000277057 8.461212704468723 0 0 0
103 1 0.5410451323190546 5.032563486662083 8.378966784834972 0 0 0
67 1 2.6304409432605658 3.848017041245637 8.389123333523353 0 0 0
225 1 3.248617606032614 5.064280318869557 8.703802162316238 0 0 0
197 1 5.451672758559049 3.9584304122430236 8.518015651692572 0 0 0
231 1 4.680569080491573 5.110794820554393 8.493273416407899 0 0 0
195 1 6.810988864575359 3.915419550160919 8.352653048169348 0 0 0
353 1 7.687293098019689 5.145775708744947 8.537028398041445 0 0 0
325 1 9.682259334899726 3.8475403094807725 8.291216639663226 0 0 0
359 1 9.000576097784068 5.023054818102517 8.247060897643177 0 0 0
323 1 11.090268550171036 3.848770909400182 8.145875093378049 0 0 0
481 1 11.700426685385771 5.09624529604536 8.293991920444766 0 0 0
453 1 13.918842777726457 3.9019522240087565 8.319891260108546 0 0 0
487 1 13.121460834240795 5.079382201481561 8.258087543353442 0 0 0
451 1 15.323840507267132 3.8138937644007096 8.505370109481706 0 0 0
97 1 16.03594863976326 5.1307019152413895 8.57658405678234 -1 0 0
101 1 1.126169216535219 6.274943419960355 8.775628403181626 0 0 0
7 1 0.5204171608095343 7.433240152213376 8.52517948140512 0 -1 0
99 1 2.561978736946459 6.357571958346006 8.565613862798301 0 0 0
129 1 3.2461171480540805 7.506825008070246 8.639499590365242 0 -1 0
229 1 5.426940606765283 6.283294282384665 8.59365170034028 0 0 0
135 1 4.740498808716445 7.5501575799982446 8.487182331689823 0 -1 0
227 1 6.803558187334319 6.354212132434087 8.495569668427018 0 0 0
257 1 7.6147556884455865 7.532266320165129 8.40106954686985 0 -1 0
357 1 9.714274912889111 6.255025561746283 8.669449010072459 0 0 0
263 1 8.974985842453224 7.566459108851972 8.497087007225876 0 -1 0
355 1 11.01190554459825 6.209863174003399 8.59112279032429 0 0 0
385 1 11.683440636936794 7.454771040416048 8.569199049487004 0 -1 0
485 1 13.79909516235371 6.36666124946514 8.494544519339392 0 0 0
391 1 13.167302171112759 7.499729405637097 8.414661477023927 0 -1 0
483 1 15.39994817643807 6.288201136974737 8.412348046405008 0 0 0
1 1 16.060196132972134 7.487977510712794 8.390839774050004 -1 -1 0
39 1 0.4414752946063435 0.24225669828918228 8.493973174361075 0 0 0
5 1 1.194703061436137 8.709893196164543 8.696540831348274 0 -1 0
161 1 3.322193150898073 0.3111231749173662 8.491897512303362 0 0 0
3 1 2.5514581027082426 8.750160017375238 8.39938789560346 0 -1 0
167 1 4.873912206636986 0.3286874135159721 8.281849892736911 0 0 0
133 1 5.5469030893430356 8.751986443286185 8.533708210258833 0 -1 0
289 1 7.5721499505867165 0.24523252622145542 8.170679645967244 0 0 0
131 1 6.935168517544289 8.739089340227563 8.317874858701392 0 -1 0
295 1 8.92742964442234 0.18294272625293395 8.164937574176736 0 0 0
261 1 9.649705168080214 8.720866185230976 8.495502824369659 0 -1 0
417 1 11.749505743751044 0.19858109007223135 8.395236559692318 0 0 0
259 1 10.984188461116288 8.740734136157517 8.521012393397184 0 -1 0
423 1 13.184947376145102 0.31688433431198426 8.362033721592727 0 0 0
389 1 13.874287819068384 8.712560414773773 8.419476148871889 0 -1 0
33 1 15.860516921606742 0.2660936104251501 8.387436963018626 -1 0 0
387 1 15.27259803691626 8.724645666823067 8.242072640479408 0 -1 0
34 1 1.918959148006414 2.509331741340723 10.763918635634788 0 0 0
424 1 0.48536343953128325 2.5657059345042272 10.541441908331741 1 0 0
392 1 0.31940876007509544 0.13859258642205333 10.562681949032392 1 0 0
4 1 2.539324848432212 1.358534001413462 10.145157166116213 0 0 0
6 1 3.9441207881527256 1.382966037881518 10.776597784701217 0 0 0
162 1 6.018289143434331 2.4339793796372753 10.52011450080314 0 0 0
132 1 6.6977699867476765 1.228052474202748 10.532226246559652 0 0 0
134 1 8.09559510546217 1.2626567561810844 10.141950909077494 0 0 0
258 1 10.185614258071915 9.580730731888542 10.376882424531512 0 -1 0
136 1 8.783937250164255 9.64311798289654 10.299261389951125 0 -1 0
260 1 10.9636135234396 1.189303530054661 10.350540692299834 0 0 0
262 1 12.36485379428228 1.1042462641679012 10.320595453241808 0 0 0
386 1 14.391567930147005 9.695911051071782 10.287943645455952 0 -1 0
390 1 16.591335933645027 1.3570080000438816 10.623851164603185 0 0 0
388 1 15.092798616640852 1.2381702136248702 10.595230113587006 0 0 0
66 1 1.7583764036496157 4.939294439040982 10.285546669600986 0 0 0
456 1 0.34800376005422806 4.9445764836187776 10.474636768186064 1 0 0
36 1 2.4913212340985136 3.7773957407004555 10.472726156945486 0 0 0
38 1 3.9869846112056333 3.5727497033374624 10.3381312620149 0 0 0
40 1 4.716071150772141 2.460343979601789 10.486493899829494 0 0 0
194 1 6.028013217776886 4.900636902875136 10.674739354559996 0 0 0
72 1 4.6659603096460325 4.7735332827073425 10.639166649171788 0 0 0
164 1 6.700687970867301 3.6796405388373783 10.608681495505353 0 0 0
166 1 8.079281169467569 3.6651216225312733 10.4084048770269 0 0 0
168 1 8.906114732192258 2.544847118590533 10.356960388485515 0 0 0
290 1 10.284250619717403 2.4498974455512386 10.174167352352304 0 0 0
200 1 8.844132797298283 5.012798971787689 10.381748143216418 0 0 0
322 1 10.154568452741906 4.955349265428306 10.297410557782532 0 0 0
292 1 11.02392927871204 3.6319253501283795 10.314929677485015 0 0 0
294 1 12.338996306036309 3.558602878545713 10.26611487668534 0 0 0
418 1 14.446595559814877 2.4464144224466176 10.549081952196502 0 0 0
296 1 13.042870801252716 2.4455781046873164 10.405856416082223 0 0 0
422 1 16.55700927747116 3.7735172276402262 10.544551913216146 0 0 0
420 1 15.194522371389183 3.7693483155821386 10.596561327752852 0 0 0
98 1 1.7656503502197967 7.331427722757478 10.547596411311913 0 0 0
68 1 2.499231179592503 6.083752399159186 10.68062091703244 0 0 0
70 1 3.94707698302564 6.081292449019424 10.45281694423802 0 0 0
104 1 4.648635837945483 7.251499646740545 10.619450626763781 0 0 0
226 1 6.032401558948737 7.24376858233236 10.369230324953378 0 0 0
196 1 6.688660821317957 6.11432804770939 10.543691623700232 0 0 0
198 1 8.083929334993304 6.056036625575262 10.531391663839688 0 0 0
232 1 8.860005183550465 7.21890079563779 10.564151884908835 0 0 0
324 1 10.891758150834628 6.040194455383683 10.649894354911979 0 0 0
326 1 12.32038588448615 5.951405732681555 10.376661703333909 0 0 0
450 1 14.465991384491222 4.922243783297786 10.476671776193504 0 0 0
328 1 12.96954990181802 4.8408404197045956 10.416943030485186 0 0 0
454 1 16.497841397975378 6.140995168383854 10.660052400977232 0 0 0
452 1 15.081855781501567 6.126566138347129 10.549109298008522 0 0 0
488 1 0.2723056886430964 7.376719935701199 10.641208756520436 1 0 0
2 1 1.774792179611674 0.22376263477303482 10.24896946688376 0 0 0
100 1 2.515933792285922 8.539629037558775 10.499130354975486 0 0 0
102 1 3.954787790243899 8.455216850799681 10.364657371214133 0 0 0
130 1 5.945708322960484 9.746465796506037 10.351901107057262 0 -1 0
8 1 4.628629527911486 9.759128459996056 10.420564277776542 0 -1 0
228 1 6.596023970723116 8.439632139928461 10.44306232951025 0 0 0
230 1 8.177200101561372 8.377443828836496 10.371001727747457 0 0 0
354 1 10.264489015562118 7.1609087567720175 10.94648266574606 0 0 0
356 1 10.929659141635359 8.370444786500999 10.622684657804804 0 0 0
358 1 12.339362251398999 8.397616433765307 10.413538557961573 0 0 0
482 1 14.390041860331197 7.332167126061631 10.50174155147598 0 0 0
360 1 13.085892961439804 7.217489475248258 10.74647400269123 0 0 0
264 1 13.07383071522038 9.67921385561822 10.432963776374944 0 -1 0
486 1 16.542562360051193 8.55853277719348 10.499288140496194 0 0 0
484 1 15.08771524791988 8.52933233276302 10.340525175671003 0 0 0
43 1 1.1780098627899722 0.8996608752349596 12.45976708414106 0 0 0
201 1 1.8283363480904653 2.0985284757756335 12.183280205942143 0 0 0
173 1 4.077244055341945 0.9400188636926529 12.250565351131826 0 0 0
207 1 3.1958953140772697 2.114654623473207 12.805609510791221 0 0 0
171 1 5.414271363314382 0.7339246886504173 12.603811058230253 0 0 0
329 1 6.212779326592217 2.0434909283229414 12.546149165782605 0 0 0
301 1 8.35535794066343 0.8059680603469898 12.447150131564818 0 0 0
335 1 7.572807615211431 1.9747389960507853 12.530199359392537 0 0 0
299 1 9.641028192873698 0.8664768717513933 12.37078759785961 0 0 0
457 1 10.273526795963726 2.0674711464145865 12.301037852644107 0 0 0
429 1 12.482713797304376 0.8659222638572982 12.380184814233807 0 0 0
463 1 11.63861405541043 2.11570925088586 12.184438869447538 0 0 0
427 1 13.849775337374883 0.8618666362420229 12.39964726485932 0 0 0
73 1 14.466385069837223 2.0445989521767767 12.632468663722204 -1 0 0
45 1 16.59232377892677 0.9090529582839272 12.74049495293683 -1 0 0
79 1 15.827610603620073 2.1046354611341034 12.541649539328692 -1 0 0
75 1 0.989553125841487 3.325367774172636 12.439956522309968 0 0 0
233 1 1.7807054531057311 4.592960495083457 12.481794320659453 0 0 0
205 1 3.9653112892574334 3.2850620390267258 12.417117140944754 0 0 0
239 1 3.1696358773781372 4.550466871170511 12.389523513175774 0 0 0
203 1 5.424649275769459 3.253716381587268 12.644013365700093 0 0 0
361 1 6.108863089784931 4.459656874416861 12.744314451737091 0 0 0
333 1 8.23059027479079 3.2771209166488515 12.518595771086403 0 0 0
331 1 9.575993889582724 3.2669448532458354 12.326279690207018 0 0 0
461 1 12.376636985744367 3.35183964615883 12.362036450603647 0 0 0
495 1 11.801325076276878 4.509664024917686 12.476343729274618 0 0 0
459 1 13.745800643792123 3.316779611893808 12.324392487773654 0 0 0
105 1 14.54200775843982 4.545489355326624 12.57947550120348 -1 0 0
77 1 16.518077106222997 3.4677893434254083 12.765804125335936 -1 0 0
111 1 15.822210089111516 4.532861832830738 12.552091227080213 -1 0 0
107 1 1.1918987120175286 5.795453421046147 12.601404918353783 0 0 0
137 1 1.8902643091975322 6.9767843924217825 12.94435514812611 0 -1 0
237 1 3.98153732394 5.580254946955409 12.76834399042941 0 0 0
143 1 3.2131505980447725 6.939852141969382 12.812780851146018 0 -1 0
235 1 5.412620015067219 5.642060709701477 12.712199286657249 0 0 0
265 1 6.10418886243442 6.839664373898203 12.550338898642945 0 -1 0
367 1 7.552753798861015 4.455281543021638 12.348672723776659 0 0 0
271 1 7.596843364754526 6.819963561578672 12.517965832217103 0 -1 0
365 1 8.26596724143706 5.617189880818052 12.648551390671267 0 0 0
489 1 10.398803785287166 4.5162469024358245 12.307460853870321 0 0 0
363 1 9.656671756585194 5.646259636065921 12.513703863220577 0 0 0
393 1 10.390608586009039 7.0966643073167655 12.353411674004233 0 -1 0
493 1 12.453549130680035 5.75194191094204 12.542917656980404 0 0 0
399 1 11.691451275918377 6.986868266442505 12.589154826873141 0 -1 0
491 1 13.84735346585315 5.8471055441034645 12.338293721598278 0 0 0
9 1 14.506030319589268 7.035898918930496 12.586471928239582 -1 -1 0
109 1 16.692170451794546 5.8878474926142195 12.75192826900146 -1 0 0
15 1 16.045939984062564 7.172683156700411 12.54571714533899 -1 -1 0
169 1 2.0291760031215054 9.4500624372552 12.45795742269848 0 -1 0
11 1 1.2262036015145572 8.266520735440055 12.580619652915619 0 -1 0
175 1 3.3062441459662564 9.445991434487606 12.237356381546117 0 -1 0
141 1 3.955546789066888 8.078413442187083 12.492910566759576 0 -1 0
297 1 6.2275998986679895 9.11669085425288 12.386275299574033 0 -1 0
139 1 5.389876046188883 8.018514352738807 12.414347683514658 0 -1 0
303 1 7.549774250454842 9.197637646948769 12.35594407678353 0 -1 0
269 1 8.284597447485822 8.016513669785663 12.660555916715133 0 -1 0
425 1 10.38374702948613 9.30473893132459 12.498767733793585 0 -1 0
267 1 9.649064420218094 8.188447658912692 12.881820153715031 0 -1 0
431 1 11.80165976916763 9.330180599153078 12.299868251678191 0 -1 0
397 1 12.389582148979626 8.197173441678194 12.553380420183249 0 -1 0
395 1 13.826831842998251 8.17405212301578 12.539496024927383 0 -1 0
41 1 14.524439206949443 9.318210905357862 12.578012912607802 -1 -1 0
47 1 15.913263115449674 9.40962238520995 12.62445545511479 -1 -1 0
13 1 16.728449530576178 8.29916467302925 12.654202065569722 -1 -1 0
110 1 0.42125585224414025 2.1178784385168057 14.607421328732368 0 1 0
112 1 1.0965715399660172 0.8234330287433574 14.749121313456563 0 1 0
236 1 3.1340844834668244 2.0537992327366936 14.309165650675506 0 1 0
234 1 2.5250154917052905 0.7733516540290808 14.612141929248699 0 1 0
238 1 4.550694054939108 1.9842830822043438 14.639997679432025 0 1 0
240 1 5.311814038687144 0.9195393837152458 14.781772066990019 0 1 0
362 1 6.832312454148784 0.9382090216939701 14.594776757134333 0 1 0
364 1 7.4090439347717325 2.1814761936611022 14.757364058378148 0 1 0
366 1 8.726249523893223 2.1939802647783866 14.464300764679825 0 1 0
368 1 9.515654938323491 0.9714187369727478 14.537862026186467 0 1 0
490 1 10.92905043213873 0.9927198523246208 14.592048962490935 0 1 0
492 1 11.73687618326152 2.20384827595537 14.373988931568597 0 1 0
494 1 12.993700396230517 2.2364406771120597 14.56558531420941 0 1 0
496 1 13.764249156142968 0.9554062652535523 14.53385094792429 0 1 0
106 1 15.200888972591354 0.9234331981395635 14.315387269848728 -1 1 0
108 1 15.860273393046288 2.0808344592687984 14.622383218823654 -1 1 0
16 1 1.1602035457345905 3.365918823777041 14.656013227486362 0 0 0
14 1 0.4176725343884384 4.489668861155105 14.680278086942351 0 0 0
140 1 3.442440180879831 4.50404266386992 14.90623571252744 0 0 0
138 1 2.578775539766743 3.310872919996634 14.581924348379324 0 0 0
142 1 4.69864244964557 4.4553578446353175 14.474673318553062 0 0 0
144 1 5.230197122378222 3.2067682640490123 14.78638990751692 0 0 0
266 1 6.603209432358846 3.259697948218111 14.498042225800912 0 0 0
268 1 7.390458739433678 4.545077268669199 14.521244084864541 0 0 0
270 1 8.83001824727599 4.491878329498957 14.379607402072832 0 0 0
272 1 9.564042826683929 3.3864514809150776 14.42000731518419 0 0 0
394 1 11.060047118808098 3.4344906906525385 14.32316167230168 0 0 0
396 1 11.713389552278759 4.576796857052505 14.728067226785246 0 0 0
400 1 13.813562655455495 3.3794532176500294 14.426918905857901 0 0 0
398 1 13.115003586103473 4.598822409287774 14.341983330320055 0 0 0
10 1 15.20150148243378 3.318325586780014 14.51938672866067 -1 0 0
12 1 15.931186671667465 4.482554366230526 14.734008817115258 -1 0 0
48 1 1.2639609958383837 5.5924996063655765 14.856695091281086 0 0 0
46 1 0.4533405983402075 6.845986687974549 14.639277477710744 0 0 0
170 1 2.7242257564931274 5.618610507857503 14.951429755665941 0 0 0
172 1 3.3974714547632674 6.809284316557894 14.888728722830304 0 0 0
176 1 5.500829879838397 5.715913515319171 14.91540845784287 0 0 0
174 1 4.786726199500794 6.764898189050738 14.682350775551114 0 0 0
298 1 6.8386666248302745 5.7796431762465925 14.489162270320307 0 0 0
300 1 7.52757944849846 7.078177260909373 14.566674118364187 0 0 0
302 1 8.995003670024527 6.951762305729211 14.851263108977392 0 0 0
304 1 9.735247065028256 5.7342202715171435 14.645553627448487 0 0 0
428 1 11.813872528422868 6.946661015049277 14.781750058883576 0 0 0
426 1 11.085948561493696 5.803654841701698 14.650253445845937 0 0 0
430 1 13.086448623011588 6.9655734613484865 14.65988951349085 0 0 0
432 1 13.835403105773889 5.783152006973053 14.434621212576637 0 0 0
42 1 15.243237099731298 5.629233432688142 14.576983944858942 -1 0 0
44 1 15.898961925649871 6.911902920069125 14.79863949065464 -1 0 0
80 1 1.29721205833215 8.101047665184103 14.82133964961162 0 0 0
78 1 0.45710104350441577 9.236003283425713 14.607410172355758 0 0 0
202 1 2.7203790109113974 7.95323534363096 14.716583234850887 0 0 0
204 1 3.365068074148199 9.176695358442032 14.72408201715161 0 0 0
206 1 4.762432608744776 9.284457662626213 14.54487978670223 0 0 0
208 1 5.462342637128419 8.073801022495061 14.540063415440617 0 0 0
330 1 6.844559954325033 8.199066925113506 14.409768119919413 0 0 0
332 1 7.512052074725084 9.33584118609883 14.616839772062251 0 0 0
336 1 9.639928624480502 8.22059467164337 14.402997392842453 0 0 0
334 1 8.842022789963567 9.416846950448475 14.417984489877476 0 0 0
458 1 11.026884031999131 8.220192705285156 14.610601241723334 0 0 0
460 1 11.636410715970776 9.370834942858142 14.661617312903694 0 0 0
462 1 13.141223637540424 9.453621931143545 14.392671785279125 0 0 0
464 1 13.800479409707457 8.171429122036676 14.780630923023832 0 0 0
74 1 15.204783576458459 8.037594099580271 14.72078476030535 -1 0 0
76 1 15.777225569605397 9.35685138459772 14.688898450481432 -1 0 0
23 1 1.830173082546344 2.341662225170769 16.835814515682642 0 0 0
17 1 0.3556064763521095 2.3723647806669415 16.785642467405097 0 0 0
117 1 2.5298727922668895 1.181919253727095 16.661833293474984 0 1 0
115 1 3.9946052218446915 1.0907199129676264 16.64810418817981 0 1 0
145 1 4.747846940927958 2.2185121316325986 16.70487470272317 0 0 0
151 1 6.07717587105167 2.2303878284963354 16.515431925364414 0 0 0
245 1 6.811974102952037 0.9919966808883346 16.72351977231496 0 1 0
243 1 8.281851408608075 0.9658722314645133 16.47778958971632 0 1 0
273 1 8.892759608756974 2.1488675159117108 16.555314327234658 0 0 0
279 1 10.305335917482855 2.2349797998694743 16.375497976661503 0 0 0
373 1 10.891751762129411 0.985482644760248 16.213410180611174 0 1 0
371 1 12.284090370090011 0.8754860796049103 16.44840776005823 0 1 0
401 1 12.979774817576189 2.2825457993550877 16.692567744661837 0 0 0
407 1 14.404651479938336 2.324630252800535 16.53627058628047 0 0 0
501 1 15.132967021629478 1.0352611974985453 16.419209401610978 0 1 0
499 1 16.559041237324614 1.0922572989958808 16.46645642916356 0 1 0
55 1 1.8761094084925825 4.675217699538197 16.794061089128334 0 0 0
49 1 0.46100191537780955 4.707130865833131 16.76147524636386 0 0 0
21 1 2.577952561657187 3.486496640948741 16.74582668554234 0 0 0
19 1 3.9892113647260463 3.3921309788665734 16.64794741124367 0 0 0
177 1 4.66482490205858 4.737320239324704 16.658413680618246 0 0 0
183 1 6.082277749005853 4.725150334082156 16.771730741607556 0 0 0
149 1 6.842631504332736 3.4114880562468253 16.60899915592089 0 0 0
147 1 8.088162024516894 3.410516991037315 16.561355822617216 0 0 0
305 1 8.789165952284094 4.5404156931890425 16.471850972981684 0 0 0
311 1 10.314222417081618 4.535010556184074 16.27649246759124 0 0 0
277 1 11.026781963873498 3.440887919508353 16.527921403757887 0 0 0
275 1 12.376898624084399 3.4585560968494042 16.407703486417507 0 0 0
433 1 13.05909398767785 4.652782044226619 16.649380100182487 0 0 0
439 1 14.446121471261973 4.694394403738588 16.390863282801604 0 0 0
405 1 15.08210220551497 3.5506730732562692 16.621197545423236 0 0 0
403 1 16.54196464071471 3.529941856793249 16.61352113016794 0 0 0
87 1 1.896087277623324 7.224821411943585 17.025371154573666 0 0 0
81 1 0.49754255947799836 7.174759451083989 16.943452908835255 0 0 0
53 1 2.604510872325692 5.924080855370892 17.023777653871793 0 0 0
51 1 3.8952837258097337 5.878890954995921 16.696572053263743 0 0 0
209 1 4.672586054538859 7.134258356601679 16.869890888152305 0 0 0
215 1 6.159657878239022 7.032955291148769 16.75299812029624 0 0 0
181 1 6.765595966489 5.826911530350425 16.643513898060636 0 0 0
179 1 8.042350532319922 5.754567441022037 16.595489518410172 0 0 0
337 1 8.79597739455001 6.959805139423941 16.410612424244682 0 0 0
343 1 10.138509073847159 6.909805085491721 16.640141317723497 0 0 0
309 1 10.901844636607835 5.773361828940503 16.7249055534552 0 0 0
307 1 12.330346002892044 5.8391490912232165 16.648770105594853 0 0 0
465 1 13.062410055518876 7.0626341794005665 16.766830519889705 0 0 0
471 1 14.439309442999976 7.194311002721133 16.611234571160637 0 0 0
437 1 15.226836595327054 5.863102622671823 16.657814323423857 0 0 0
435 1 16.64213643343365 5.932600556080299 16.610049277758115 0 0 0
119 1 1.8490872622518224 9.593254352715798 16.66545279228043 0 0 0
113 1 0.42481140005831286 9.601169654177411 16.7114172926744 0 0 0
85 1 2.572325599964384 8.352940369326175 16.732787440607844 0 0 0
83 1 4.055313395956053 8.395052983151498 16.566617043854656 0 0 0
241 1 4.742539357675936 9.570345302280604 16.691948831932606 0 0 0
247 1 6.163248587803648 9.579163166324735 16.677912901759832 0 0 0
213 1 6.783487865074643 8.213775966012475 16.560040167254407 0 0 0
211 1 8.192710275413514 8.27691872024018 16.37438107822061 0 0 0
369 1 8.863981883963614 9.40143343574406 16.809249436272186 0 0 0
375 1 10.27459787819005 9.436701500286336 16.70113403029842 0 0 0
341 1 10.9514658129809 8.23902791299859 16.913819801401317 0 0 0
339 1 12.365642325353878 8.26578825022018 16.754446532514407 0 0 0
497 1 13.008200801163202 9.439861461779408 16.497192720142927 0 0 0
503 1 14.418788775645693 9.497784292154831 16.606902362145718 0 0 0
469 1 15.10563728008267 8.28856029675993 16.79367627716092 0 0 0
467 1 16.59155800367259 8.246060272882081 16.58389698186467 0 0 0
114 1 1.089481489812093 0.7370808454403407 18.6433689703147 0 1 0
116 1 1.6542858494900088 2.0135269064127574 18.853221556224764 0 1 0
118 1 3.128129048842526 1.9688977257507 18.783242704807922 0 1 0
120 1 3.893454884429989 0.7073250996726675 18.805444722780365 0 1 0
242 1 5.184417167285852 0.7629808439557063 18.579152163534445 0 1 0
244 1 6.006978009936667 2.0564554108206696 18.70916309110612 0 1 0
246 1 7.410240136339252 1.987690754601321 18.658573989654236 0 1 0
248 1 8.038421300868372 0.7068792319833468 18.66640495093525 0 1 0
372 1 10.124297447149152 1.9271781470030935 18.532570761710268 0 1 0
370 1 9.440196179663545 0.670303955898715 18.64693797163335 0 1 0
374 1 11.441401234550476 1.9599412059932193 18.511375772513624 0 1 0
376 1 12.130016106539339 0.6604068271771908 18.577505679084517 0 1 0
498 1 13.526839566467793 0.6166772811261063 18.4766240469424 0 1 0
500 1 14.241709673633203 1.9018721186031062 18.586194437393395 0 1 0
502 1 15.719545543701246 1.9875608805737022 18.271730795739174 0 1 0
504 1 16.538625161957874 0.7566812265133774 18.63150774481088 0 1 0
18 1 0.9663899806892492 3.1720689192356053 18.8328266615868 0 0 0
20 1 1.6450806129510018 4.458059504122486 18.85902048416707 0 0 0
22 1 3.0456440465946337 4.410734520298397 18.726581887115444 0 0 0
24 1 3.7691883084881064 3.250878319963386 18.723585676472382 0 0 0
146 1 5.308480701026287 3.234122972583538 18.540433238167637 0 0 0
148 1 5.985786846460298 4.375625217429963 18.806904589040524 0 0 0
150 1 7.5341851836689875 4.311755442275422 18.77334013410387 0 0 0
152 1 8.183402739928606 3.1758958286850674 18.642359713074704 0 0 0
274 1 9.477873681225145 3.167557643231139 18.423603584079714 0 0 0
276 1 10.060166216781862 4.21959432548225 18.536691641202115 0 0 0
280 1 12.190464766060824 3.105591902672547 18.568991039860137 0 0 0
278 1 11.53555813182745 4.375095330306869 18.389125722249673 0 0 0
402 1 13.691143765864307 3.167754556662685 18.531156528091664 0 0 0
404 1 14.401358214220066 4.316457101785198 18.573094852749158 0 0 0
408 1 16.41319616840829 3.174506689449989 18.791764751905294 0 0 0
406 1 15.711376016834137 4.348882616476813 18.660952916805076 0 0 0
50 1 1.0602945009073514 5.694914030962591 18.570603640616046 0 0 0
52 1 1.7323427651384942 6.910167797913284 19.08064616784862 0 0 0
54 1 3.1165045365012407 6.764965776700875 18.952906133830886 0 0 0
56 1 3.8549350241604072 5.566142178066453 18.83124118398778 0 0 0
178 1 5.228802386857097 5.581963396336828 18.66734348544586 0 0 0
180 1 5.974743944809929 6.664621167702959 18.824559154042305 0 0 0
182 1 7.349478817165364 6.724441433128754 18.552527967416534 0 0 0
184 1 8.13738554303844 5.538259080574641 18.68646938302213 0 0 0
306 1 9.375141586503632 5.4917493316663535 18.516147667807658 0 0 0
308 1 9.953704125930829 6.7117907287142415 18.760708207397233 0 0 0
310 1 11.51156259912434 6.710432223113043 18.896550117063082 0 0 0
312 1 12.229412323243574 5.46317998555239 18.7302939331272 0 0 0
434 1 13.666447291115885 5.475477156767618 18.778708201596885 0 0 0
436 1 14.449330047262187 6.735344628445537 18.845495454572585 0 0 0
440 1 16.444984368826823 5.673013659563248 18.691550935933563 0 0 0
438 1 15.747132764727873 6.77328430120122 18.652580874757824 0 0 0
82 1 1.0178609303988746 8.03916330208894 18.856517205579543 0 0 0
84 1 1.818355716491353 9.225026288205026 18.84761744764609 0 0 0
86 1 3.246198296251291 9.118234001103792 18.74138705666821 0 0 0
88 1 3.9195479280410073 7.959037286773136 18.891382823909222 0 0 0
210 1 5.31026193187199 7.859430132700685 18.78495184244519 0 0 0
212 1 5.936510083793361 9.145710735761766 18.763452837799036 0 0 0
214 1 7.38132626449024 9.246976694857745 18.480693996401428 0 0 0
216 1 8.033513025705055 7.912948363096365 18.537398552663845 0 0 0
338 1 9.43137393030218 7.922912291526637 18.502518385743443 0 0 0
340 1 10.131267438408742 9.097674166235306 18.822210537708614 0 0 0
342 1 11.514572166585896 9.189637126444556 18.77093846286315 0 0 0
344 1 12.208776056751473 8.01777797541808 18.87973939809354 0 0 0
466 1 13.691195267917506 7.946486479909917 18.618566024758394 0 0 0
468 1 14.367638066696259 9.15706114912543 18.734744912430653 0 0 0
472 1 16.559908659360914 7.964467165744541 18.931220401451466 0 0 0
470 1 15.849722759002281 9.221746342425236 18.838935802414937 0 0 0
57 1 0.8761772614425849 0.46076643712469345 20.780593428118976 0 0 0
443 1 16.957022671351325 1.6817945135165262 20.674594803077607 0 0 0
63 1 2.29514352875454 0.3735143946774083 20.69158765488516 0 0 0
61 1 3.08670648604018 1.611300144234811 20.860982214425754 0 0 0
59 1 4.446848129370464 1.7168390468488341 20.64168273508725 0 0 0
185 1 5.084880173950664 0.44237496046592906 20.733327267770747 0 0 0
191 1 6.511968345519357 0.4498627323722677 20.514093609401883 0 0 0
189 1 7.088558192411879 1.8008758470184938 20.800651989794375 0 0 0
187 1 8.757982900334925 1.655863023280674 20.502998719905705 0 0 0
313 1 9.367847050640009 0.39461183183181797 20.73684106286121 0 0 0
319 1 10.790443092338315 0.33307205287879593 20.670695312123172 0 0 0
317 1 11.503616580366355 1.5341628374469245 20.659808486162497 0 0 0
315 1 12.858846896691224 1.4751294325525397 20.438011822436863 0 0 0
441 1 13.598086917475632 0.2252861263215941 20.61905595190504 0 0 0
447 1 14.92226287956681 0.3047085738558141 20.60280953310764 0 0 0
445 1 15.660231365073562 1.637831263617483 20.57520485390767 0 0 0
89 1 0.8718400778196043 2.7604543524344187 20.91406126016274 0 0 0
475 1 0.3057538973337801 4.096282163568636 20.72602153219835 1 0 0
95 1 2.236642873359082 2.7856730948349258 20.897609357229307 0 0 0
93 1 2.9108646889451832 4.039974014587536 20.8284326348181 0 0 0
91 1 4.312597162198091 4.056812092656182 20.81271461981646 0 0 0
217 1 5.08682671336731 2.915238103448989 20.64698664455819 0 0 0
223 1 6.466136248198743 2.919422096928016 20.56578004405136 0 0 0
221 1 7.266081863841244 4.071054997870439 20.83601404060862 0 0 0
219 1 8.628525041777907 3.961613281924769 20.540134500323155 0 0 0
345 1 9.35683422254061 2.7434301084717987 20.59831736971987 0 0 0
351 1 10.788446029199632 2.8832767590727264 20.42927002749085 0 0 0
349 1 11.477421988134727 4.110707530569225 20.47237758044266 0 0 0
347 1 12.828444650959101 4.01342207585029 20.661531828941392 0 0 0
473 1 13.55992193000354 2.7683883633769657 20.73122408752041 0 0 0
479 1 15.044924355193496 2.8172061286926025 20.527444667554565 0 0 0
477 1 15.788606241645859 3.9102264521708423 20.829754740440862 0 0 0
121 1 1.0011819802571624 5.255705795977024 20.740133143415243 0 0 0
507 1 0.2800004495805182 6.487813230689963 20.745214276782942 1 0 0
127 1 2.408587639969199 5.250472382998796 20.78783739803135 0 0 0
125 1 3.077956439073121 6.460555398831125 21.07710234268199 0 0 0
123 1 4.452109232576199 6.466950131314985 20.696999653383536 0 0 0
249 1 4.992998249637982 5.241235649795715 20.82110259508479 0 0 0
255 1 6.572495791077279 5.382026837606368 20.72371307798884 0 0 0
253 1 7.27431300997741 6.614266074276229 20.685677966477257 0 0 0
251 1 8.558591788355953 6.543101716795586 20.59623266991425 0 0 0
377 1 9.310021148670465 5.215447351563563 20.616657185366208 0 0 0
383 1 10.737661930848073 5.3132464898236345 20.28682456196726 0 0 0
381 1 11.389498764520278 6.485355644445888 21.010497783648667 0 0 0
379 1 12.891239970972139 6.3802765496853135 20.692958271985262 0 0 0
505 1 13.680373813622815 5.122264748862948 20.942276776565873 0 0 0
511 1 15.015600877807511 5.1429598197893736 20.605641974835656 0 0 0
509 1 15.674295425845314 6.362048301212478 20.712178293922335 0 0 0
25 1 0.8780309792453487 7.60134011964331 20.959984561132188 0 -1 0
411 1 0.2537886001651536 8.911448023717004 20.756135155843005 1 -1 0
31 1 2.2650153323908166 7.594012795839477 20.97641387093857 0 -1 0
29 1 2.9209367852289736 8.925352906989083 21.004330027396314 0 -1 0
27 1 4.419846140286065 8.920204665246288 20.885939369577677 0 -1 0
153 1 5.125825765724232 7.710920221259457 20.94726980080117 0 -1 0
159 1 6.544838273583035 7.792967252276286 20.559298278901064 0 -1 0
157 1 7.226033020532623 8.886794398894095 20.66451213403038 0 -1 0
155 1 8.602925304623428 8.91150636236462 20.561991818382467 0 -1 0
281 1 9.295698710241215 7.730719730696182 20.70012202461011 0 -1 0
287 1 10.72679746070919 7.678541050906482 20.618005566912807 0 -1 0
285 1 11.491431294783162 8.858728782513449 20.834573975934745 0 -1 0
283 1 12.898421129414617 8.753339436023637 20.69399679486496 0 -1 0
409 1 13.58534319451318 7.552117288919044 20.78930401129835 0 -1 0
415 1 15.047832186901196 7.559634016945661 20.739693542847206 0 -1 0
413 1 15.694066759060101 8.764805507845638 20.886844688980837 0 -1 0
58 1 1.617228209297852 1.3417360033066665 22.981839181409832 0 0 0
28 1 2.414840501995024 0.15531668821433392 22.97617416735782 0 0 0
30 1 3.8061474185143087 0.11139939649578194 22.780194865959782 0 0 0
64 1 4.394276691417313 1.3284470718630306 22.722279120057017 0 0 0
186 1 5.85230926877509 1.4144744094647324 22.652822090481592 0 0 0
156 1 6.50478003435919 0.12342465527409982 22.59602711323221 0 0 0
158 1 7.891648922721207 0.11009529828234933 22.470314794605713 0 0 0
192 1 8.619854531184258 1.3216010855298022 22.604289446960976 0 0 0
314 1 9.958415106731156 1.3903207691374693 22.59798386864675 0 0 0
284 1 10.646591044841571 0.2637425777402416 22.726028952016947 0 0 0
320 1 12.833030534859509 1.3739678036308338 22.52733683214651 0 0 0
286 1 12.036270152508525 0.22908867742436081 22.57153229641046 0 0 0
442 1 14.291126007778082 1.5184294560077365 22.60582646630842 0 0 0
412 1 14.954261650261806 0.098330093377701 22.714400379421143 0 0 0
448 1 0.2700089669351513 1.3120113965048925 23.03723973013239 1 0 0
414 1 16.35743584519623 9.742823833992288 22.70552056273396 0 -1 0
90 1 1.5205536193920453 3.794883073802181 22.72698349266718 0 0 0
60 1 2.0891650210607073 2.635101734623714 23.087901227809255 0 0 0
62 1 3.640763513616997 2.531751131225183 22.72804258186066 0 0 0
96 1 4.304514663439861 3.723421105925713 22.945121233033763 0 0 0
188 1 6.4765161786597 2.54889107549269 22.683891268124015 0 0 0
218 1 5.813648334256761 3.779005396137944 22.78727918713031 0 0 0
190 1 7.83491955914128 2.5895074999774734 22.601095487266903 0 0 0
224 1 8.643700145380157 3.820519208575391 22.67099578703288 0 0 0
316 1 10.650062662647501 2.6138088330197338 22.66655487242224 0 0 0
346 1 10.00584853440192 3.7736211154838974 22.51902940304109 0 0 0
318 1 12.170926214533802 2.569115779796747 22.465453515339238 0 0 0
352 1 12.83965636170644 3.686404179060347 22.755905806295694 0 0 0
444 1 14.944595292506303 2.616413090218471 22.858432732766044 0 0 0
474 1 14.27680315750186 3.786189344760022 22.681174114757848 0 0 0
480 1 0.23150810836835234 3.8935238671394257 22.841052525516773 1 0 0
446 1 16.422496160772717 2.5868012511203213 22.774139620399836 0 0 0
122 1 1.5730538266785088 6.23805876528159 22.934034545568892 0 0 0
92 1 2.312323211787959 5.04284504398127 22.90562008066121 0 0 0
94 1 3.69096814393025 5.0410652407766445 22.92805029311449 0 0 0
128 1 4.5658353048552875 6.256200006154659 22.904505748156904 0 0 0
250 1 5.944584127450069 6.16219174723226 22.873984179657597 0 0 0
220 1 6.575801173288431 4.969267675338824 22.773015351534625 0 0 0
222 1 8.034979979739513 5.014440006044956 22.728385803047736 0 0 0
256 1 8.686324873170614 6.203470428353116 22.675091775881484 0 0 0
348 1 10.77670161352918 5.1305311261599815 22.516774326093774 0 0 0
378 1 10.104474572812595 6.294977637108523 22.848315615554625 0 0 0
350 1 12.200478731021029 5.014345657329267 22.501627758067954 0 0 0
384 1 12.96341637000547 6.1550896130252974 22.78530570144318 0 0 0
506 1 14.319939669156716 6.162176800846414 22.72541362928692 0 0 0
476 1 15.057251802422092 4.9985709945138455 22.729428945297116 0 0 0
478 1 16.39957841848014 5.061045647888378 22.61320333624316 0 0 0
512 1 0.26195229874738146 6.228609574380613 22.90325215279256 1 0 0
26 1 1.694929672452542 8.619012845905866 22.767775191605594 0 -1 0
124 1 2.3943252521726164 7.510506250257229 23.048357624444314 0 0 0
126 1 3.750274989317975 7.490769306927838 22.952667289532428 0 0 0
32 1 4.468481819635837 8.535452559720053 23.024224163239666 0 -1 0
154 1 5.845905969782248 8.586742178528977 22.859465621814657 0 -1 0
252 1 6.60983458810144 7.384321259380372 22.79643857058305 0 0 0
254 1 7.919646499169497 7.3904489415739185 22.588975307171697 0 0 0
160 1 8.716647357939785 8.61399044299081 22.661017766722328 0 -1 0
282 1 10.07656875557293 8.68491305216708 22.778846781693016 0 -1 0
380 1 10.796715691327737 7.452747779844456 22.95973895999135 0 0 0
382 1 12.26909735080642 7.590257208336016 22.80526844973852 0 0 0
288 1 12.899017597560439 8.755840714294909 22.90728639673396 0 -1 0
410 1 14.198673543979034 8.652646814160805 22.700904884082632 0 -1 0
508 1 15.032234612530518 7.387802605210404 22.87907265774158 0 0 0
416 1 0.19955369282919122 8.575005062320246 22.913756572885802 1 -1 0
510 1 16.53101566441422 7.364240716570286 22.694712487558874 0 0 0

Velocities

37 -19.720970213857537 -23.480450141307525 26.32834965904637
71 -10.953157189490891 -4.5463303527867245 -4.6658692288102905
35 -15.732192276995393 9.895314116023133 11.203305979423185
193 -22.079457172756033 17.847417098748572 7.546565489689182
165 -11.339724311380216 -1.7875461321029023 16.05871009093922
199 -4.091722669364057 7.628463314776991 0.5450647851215749
163 9.47927124529129 -4.98614027363726 1.3492706976451345
321 -13.899643158834527 -1.226411624613546 -15.167129750150128
293 -45.185767323326075 -1.110031774839702 -19.26231711514481
327 0.30571065722272217 19.27338342837087 11.33148031682414
291 2.534107084507201 -6.791874708826859 -17.752686623400155
449 -10.55742436211505 -18.05409363895559 1.5236316544307662
421 23.04231654799872 -7.35344920298633 -14.518580871534988
455 7.490800943163973 51.76816739942185 -35.22677178894019
419 -0.67392769370104 36.19935852823831 -23.852137304630972
65 -12.869106819854176 23.954699074307356 -2.76288401079649
69 29.050441545347514 -25.063027631294652 -33.24224775669683
103 7.402028767092869 8.285985396669204 4.432913802495223
67 -24.516560844449454 -9.966935447074183 -3.9466155547533717
225 -9.399887145618274 -5.576559849064212 24.268861974819224
197 17.144800353722562 2.523732904296201 8.318305655885421
231 -12.813672795375343 42.1652783103415 12.460950056411402
195 -0.8852469298217197 -32.49796357211835 -15.046485655581266
353 10.32160328698093 -3.4431975664890064 -10.364513994119525
325 17.0435554457537 16.201164518960624 -1.57336379782557
359 15.520238390576923 -10.114623798739105 30.981119284091697
323 -33.65236719963319 -8.44931608622027 11.262234243750974
481 -1.278270830640397 0.9573639395378774 1.826314900317429
453 7.394049598724236 -17.7407436879128 -8.004741320039269
487 -2.1456671698997303 10.519030346830236 17.64027130644361
451 -10.451071364738127 12.27689366192754 14.103409754227759
97 7.3108198109998375 -4.399037985498614 1.9244567663842602
101 -22.88343428234831 21.39073848268929 -3.9129499637633645
7 -12.475887987056051 -2.625382922998738 23.137941853639788
99 11.757942092941247 -8.846367558821006 -11.193852901601137
129 -0.9172935198520008 14.371744334250497 -14.449532392076465
229 -5.704816670717874 -1.5085355582135676 11.25096343526219
135 32.25405710269794 12.740112633067648 -17.7917568100083
227 -4.016563407151287 1.4136892511031554 -22.95304692411481
257 19.856910407218106 -16.502341430477987 6.814665273701518
357 -21.239154294056984 -9.010706338400123 0.05731230973916982
263 15.812491724492139 -16.80179096032284 2.3157525038324747
355 4.063637531871852 24.492968898013313 7.882753387906509
385 3.4059911176185103 -8.56125788162765 -4.063939020925303
485 -5.8561997821863185 11.479414710915897 6.000566406967338
391 -5.574856245969404 -0.9511936137528917 -19.039342986578824
483 3.766769940812605 -3.7584895463559436 -4.933105328987127
1 -26.621077795251892 -18.623937366623068 20.45157360772195
39 -18.33541885520055 -6.919273581156832 -3.920363563707167
5 -1.2999396773304936 -6.0916776272646 -29.240670808487792
161 -24.368301705732787 9.850432368747601 -14.696644663566596
3 -31.241884173077196 -8.643501691318326 15.841948394627792
167 24.037636676943894 13.470959915555214 -13.48454773070789
133 33.3057026280346 -18.024142209719177 -8.764599290918676
289 19.64287138738 -9.25207270839627 -11.708851141477785
131 21.703043088279767 -15.294981998213702 -36.55675743657877
295 -6.895537013113719 -1.703370664168004 13.575055833018936
261 -14.751860021076084 15.02778852316351 -2.4963313489240058
417 12.178292070649436 35.707888904224994 -13.942870248141952
259 5.898969598924445 2.0488457126542396 -10.348019073398484
423 -20.186238843623226 13.077341247444286 -2.1420191377510442
389 -6.366943428928122 11.879700446851219 -24.523871846458512
33 -9.664689545536662 20.760209036961847 33.62148667218027
387 -11.450337089117548 0.6746062169092447 -3.869737633947465
34 -1.2831778417946238 -4.7944176852731255 5.152440230347906
424 25.9546350185668 27.39573356033869 19.633072545264202
392 -11.857588587219931 -11.747620497042512 -19.844874529847186
4 -29.24208150761793 9.54988467816077 12.645967681345253
6 -7.817288758495903 -33.53524959747457 0.07479677503711896
162 -9.731690943934012 -0.27434210544514687 1.5256241217341047
132 -6.146116562756521 -17.62943277977333 33.89496019014694
134 22.18331273647886 1.4236129952700922 28.315473760064013
258 -33.065357302792044 -8.940579862822439 -14.48641647138409
136 -10.419750236155677 -5.070929471770698 5.774370255087276
260 -19.145233277786758 3.511945171946653 -19.265072406370443
262 10.802578362194073 22.98855293100886 -12.332155077942057
386 33.427091552367166 7.308729802819457 -27.515705495712552
390 -0.3961127255912108 -7.722639147609831 -11.72291467119017
388 -4.053672257385689 12.998117873634795 -25.03533289782997
66 14.085650088224583 -15.535420483394944 5.259763140289625
456 10.543845502207622 24.210354484777188 2.8682185347671614
36 -0.35073513833996317 6.4016806144664695 9.313740454437948
38 9.760031917551192 -34.96363971171073 21.010568769180185
40 -12.577777453727915 -14.921917212810861 13.69725427672542
194 -18.298343916687934 -2.7502512626932267 1.7282449897363232
72 22.250627300729413 -45.032311531597 -0.13640364712985473
164 14.00496838174114 13.093753687465165 -4.253070197669797
166 -3.616162640039874 9.762355596202154 2.23235884828331
168 -18.521040370539843 -11.514908527657136 -9.657206520360585
290 -7.963549615286179 -1.1685802610305023 2.2177402562913198
200 15.811948164255854 -35.0764754181354 -22.492089602046736
322 7.715407292098391 -11.550418978252315 24.8807014468951
292 10.05176952017068 -22.37151308340307 3.1906233140270426
294 14.074566555603699 -7.992683212856586 -13.748615166556887
418 20.596710256468224 -6.134593196748298 30.98415654405591
296 -16.218964428612246 10.450638041406785 6.006909169601763
422 6.4991868831998785 -32.29811378061843 24.971195102835107
420 -25.641026184410656 4.203333391316232 -0.6921943876247811
98 -14.930972452982314 -10.296675134066318 2.708439070469667
68 -22.52172118483261 17.726744755414284 33.59001232896067
70 3.5941122830993564 11.39870112859365 -0.5185284592236304
104 11.31612146387298 8.440867486929449 -24.64985934922542
226 -21.62268498727491 -19.59986116551186 2.304112276800507
196 0.5628305306971818 -34.123901101290684 31.889376687760606
198 6.064790229728572 13.40686056319253 28.383727060774408
232 15.853822185187676 2.9653327676270593 -16.6269651302992
324 -6.260867420789208 -19.91638634325877 -22.55520125024157
326 26.164386006796907 -1.9834857456281536 -17.071978009580675
450 11.096671847775593 -10.403609996868967 -7.039107713578276
328 2.0981022014352275 18.5597699980863 20.22054511294711
454 -5.962608065653535 2.70713866357604 15.645129058515321
452 3.949746587423147 43.92461374595339 17.58583763446899
488 26.242352284219763 -11.594710120693357 17.466344289130188
2 -6.897333557331357 18.703354903117937 -7.548056717496313
100 16.547838436427234 29.494752776777425 3.544874969263072
102 10.620582210544496 7.572622746104182 -11.411092712024745
130 -25.14476637928912 -4.990960815275348 -8.25539516784309
8 16.083080431444838 -25.61694649883821 -0.3560720939126685
228 15.591253224568936 4.633444345222336 3.4862971775994644
230 -12.688689460813762 7.6688899703789755 -24.97803767904263
354 -11.77489794073713 -9.58657966490096 19.5731408890282
356 -10.577006252211063 3.69733214787572 2.081409475177988
358 -6.808046251134029 -5.628753591478797 -2.513356470221795
482 -2.5663159517138006 -12.460631454786913 -9.222085552256308
360 -7.313326576953902 -31.19532918709128 -0.03514705659867093
264 1.0541125597480925 11.779758997441377 -2.1823305416546694
486 13.41873685472782 57.111473253514376 -9.379965736994317
484 -7.642559309991615 12.534365984619834 10.202837720678763
43 18.370010179323092 7.563991384646655 -8.575101496493382
201 19.469024792043484 21.1438073601902 32.39607236687634
173 3.783174372929097 -2.1488805613986504 -11.704860531993226
207 23.505869449604813 2.169451852843887 -0.6083589307089426
171 -20.8697223917885 1.8792597534739512 -31.995376432285983
329 -14.88817836035373 8.301683413707924 1.3528366856309708
301 -7.051295296997814 -10.140217260161327 -27.00633085064347
335 12.821656967698617 -0.27001477803588353 3.7727599228498585
299 -19.450661735100987 1.097830219963921 0.6210118394946911
457 17.66585963020134 3.3269788196146046 8.257655585178941
429 3.2926128479311743 12.169419698927255 7.934569154692415
463 28.108955321227956 23.923545781653118 11.977827469948563
427 -5.990563055331082 14.457160026947998 5.7135331334664405
73 -22.147735177401433 -4.255419229695185 33.91747589730909
45 -7.144927278287094 1.0917511868429508 1.529058474075827
79 -22.50956810228535 -10.221185038262014 -15.229257112404316
75 -24.142128136725482 -0.3993592591712013 7.977217791640976
233 -21.64508727454426 11.712744583983136 -0.8580713077451082
205 14.833524182571587 -11.161598097470344 36.613466393026556
239 -15.331196690719505 6.239576526742263 -2.228338921334613
203 20.24510390593353 1.2987014192751827 25.56908797051847
361 7.666754025116819 22.24206070352285 39.65836024748077
333 -0.014106508763848733 11.832826109706373 -22.81610847440016
331 11.057368435928105 8.540946777624278 12.867578100440774
461 -8.29953675253269 -7.553079266774873 8.28081345290175
495 22.066406091885543 -0.2572127549839864 21.831727239135624
459 -11.844426608539733 30.77852989841444 -12.639431974246673
105 14.573077009363471 11.324170508375085 8.391277871221412
77 43.0616904552346 11.317899639875632 1.8663528687062347
111 1.2096328792158928 -3.9528181515889287 -6.480703552768718
107 -29.59959795294298 1.5030972914985032 -5.379425155723184
137 -1.5930612150418912 -20.16322812565486 -16.969216977541357
237 -3.084925169239939 -15.975236141505576 -33.74390409612929
143 -9.563935722874962 -45.10888053580947 7.626435299648192
235 -2.7564087067414884 10.195612931471597 5.418753599474121
265 -12.879176322952592 -1.944210500850701 -21.20914061075631
367 23.11506119039364 7.338194837612985 2.7160904346741854
271 -18.05240642031564 -4.972961496600881 -12.05131114102776
365 14.9177208217055 4.011855616169831 -11.618666597003095
489 -1.9109890092967032 -10.64195050656726 13.272457358359862
363 13.369525734757708 -7.7544132859691635 -12.961028594816765
393 -16.763512865376267 0.9929169053213737 4.7626989891390625
493 -11.98717563739562 18.38042164311726 -5.0854578665107075
399 -0.6476006533265384 7.017028754771326 -1.4031731978189381
491 11.409207019945306 -9.782884293589634 11.364478899924984
9 22.370152608564098 -3.419487226850814 -4.083623221512824
109 -1.4798317338221714 11.42396820602169 -5.395782455527794
15 -2.5803652301043773 3.3462454998174262 -4.383699845383734
169 1.4228438652662732 9.514573846851503 13.270742614018713
11 -6.189824916783546 -20.935577072993713 16.808815850686386
175 -23.487383915398883 -28.40419870997983 19.739782965812978
141 -1.958929992950596 -3.525590288389075 -17.20366036205283
297 7.162107921307145 13.143201031044626 -10.350725427566218
139 20.28459882241126 6.847317565532634 14.709482159743398
303 2.6678720851543227 0.5984090295148955 -3.142666798240351
269 -4.129548347313911 -9.266701539395424 28.40608513070819
425 2.2579698665232892 13.113757300528212 9.965285301924235
267 -10.076138352054354 -14.529653028018274 13.314263915447734
431 -10.024825741708117 -6.383217137305135 12.826877763054995
397 -14.913396418677054 -16.300128181418994 -2.249536537476471
395 0.6776128110453132 -19.357810145657975 37.142947540524226
41 -11.07007142420975 -15.639387429241506 4.840611894012895
47 35.93977300085039 3.055068822314571 -7.982903430048499
13 41.524678202319045 -29.090964464955857 -3.276865086278947
110 -0.7208397023713153 19.388340927134678 19.01196388522474
112 -17.832554435376572 19.33844556864436 -6.482835269216783
236 -0.50576744620734 -24.551521210222717 27.62607367363556
234 -24.96516131798617 15.517315814283462 20.725656658912893
238 5.472444873433104 -10.20358040772102 1.6264792458972641
240 -8.755634711465607 10.714878399503144 -23.938001797423322
362 -19.875301624667863 24.540174472644367 6.522772394828499
364 -3.3032082736261774 -39.67610698879276 0.8740780012231438
366 -12.079073040346078 15.619846850919846 -10.525191550515569
368 -4.026024520963051 15.095292987499322 2.595985377376086
490 -8.761585102066501 20.620621493726524 21.856250960545797
492 -36.705856961896814 -11.817684819135412 24.193868581255284
494 1.1886820806101566 -13.558156160492855 -0.22982069229900687
496 11.318870484741183 12.024222457342631 -10.915970838177117
106 -11.724397995905612 -8.434016949138243 -1.286478373127821
108 -7.3416962171026885 -13.769186020761678 -17.48857558628674
16 4.784970528523635 -6.05838663395881 -2.153408582017421
14 -16.066268431788025 -8.52372692087416 -18.882040831463236
140 6.3355043148890156 -3.6868061989580494 -2.098571819925045
138 7.455443796889636 -13.455627301484874 1.9675383078460873
142 11.774203421060738 12.247426517349652 8.144311383345249
144 25.291714865259994 4.451678684828883 10.642013118995864
266 10.12621357863018 2.7450710160465674 7.891822860491565
268 0.42888330610408226 -19.943990593130597 -4.77232165252429
270 1.9926985583272496 -13.77916833486426 -12.203257032444919
272 11.986911967304293 11.202401517910578 -5.626134342088413
394 -12.76905720582931 -7.156464481432802 -2.7148125435993693
396 16.331581807041072 -2.9866042023335675 -21.02415932628167
400 11.18707251669335 4.451419895280992 29.734476758277296
398 30.019376195643193 -0.615526426096088 7.343375315576321
10 -41.201664404753295 -3.6455705942138907 -18.360209718148873
12 -28.720177257297383 -7.025155718683196 25.91035101899814
48 -17.081506201670752 -8.590283829793192 11.7371302628451
46 -20.58497743475448 1.02756929823263 31.28596927989211
170 0.39667784818090285 -11.954349214455634 -9.075601737454173
172 26.31107488238035 -1.673356619520728 -9.65542021516423
176 -3.7777050078899 15.484401466801922 27.0790646763993
174 -0.5044514359399828 4.246961318268994 -9.469010233792837
298 -8.518870754046342 1.5270506642864872 -17.616658290495835
300 -2.8378303994098077 -15.269404568347968 16.122577192315298
302 24.644312054872778 17.023298618610458 -23.156960580167677
304 -1.8829558071638213 19.61401052510202 8.333748710914795
428 -2.6265118078242633 -14.49853531761227 19.864123632223283
426 -23.54533976903394 1.94099000270099 13.255376611526925
430 -26.722493174476895 -43.779010388927794 16.307041622996085
432 -6.64433048542897 -8.281275389356864 7.982923876978641
42 5.962690293080707 5.398234864819498 -0.3551236242695647
44 -9.424626593292185 3.3202354870939557 -11.276281109655127
80 -4.937960352535079 9.598536258380003 -15.991875020410665
78 -13.893411051021655 7.582714672942861 -19.884766870989097
202 -7.477763508552096 23.085216520298555 19.650502890126447
204 29.36183526193564 2.0895553003458853 -0.01901738914578239
206 -8.620441364996674 -7.73640291516506 5.213501965304564
208 -10.2136640598265 -15.641896085350126 21.80483132485457
330 5.694596125171092 -44.03164367161026 -1.6599513214737123
332 -5.348462718116417 2.4219172845987855 7.833607688529747
336 -0.1537186504321135 12.762564037983182 -9.329433940088993
334 10.901652463153052 -0.39858288887095966 12.022506812281406
458 -17.16519950662607 -19.439769018735714 -5.436808106055873
460 -3.879276005913342 -8.307566377052709 5.155618051286396
462 -24.580980659573605 11.375727005573241 5.78250167829963
464 -24.998173030393144 -2.315240841610264 -12.630759028283585
74 0.055212469937983996 0.5301953028279991 -25.764271886373592
76 0.651551151485244 7.014135969626788 4.597870980673119
23 -12.416069831457166 -10.583906992266256 -1.9476156067782215
17 -4.438071933626098 16.496848131317588 0.2845741960707691
117 -29.81652857264262 -16.606361638122518 -5.633847810085772
115 11.400354638560396 -25.66614729279463 -1.5258852347883878
145 -9.404701946352438 7.7759895133936014 16.721318571096283
151 -3.047209899595764 -4.949588173423196 24.53110835511459
245 6.50018453987512 7.67767522770311 13.828071112845619
243 17.872226751395385 -5.7557747678643185 11.613746469483486
273 -19.193369514252755 -7.906864218928547 -0.677762803154576
279 -14.353424506437607 7.206727352806121 -7.779762165980083
373 -13.014502812029814 7.782557798027226 10.380615515824736
371 0.5847076186195391 11.656687934736258 -7.421473641115652
401 3.1225920069408737 21.61184674113122 4.3488144126263775
407 -4.49604800378086 13.91821957449247 -26.46700535899279
501 3.0009804293210443 23.708601050908037 -1.6648087822059634
499 24.578871837809547 8.665538673592282 -38.70016758922797
55 2.0449935201752716 -2.337000975850651 6.084795590665735
49 -16.42177872802275 18.98086443868798 13.471782406748204
21 -26.775409095011558 0.9423565249954786 9.864194309311628
19 11.083762865954116 13.838518522857527 3.6430156769173934
177 19.7359663805916 -18.80567010116969 12.151406481821182
183 -3.210568676140687 -7.976025016269634 20.1541133378695
149 6.159315687107742 -29.536302617230415 -2.835138909105783
147 -1.3339593900383195 41.37952518817967 -8.391364797558746
305 -11.241194650094766 1.2151363002441762 -1.465539524384734
311 -6.47921878232189 -10.648011832662739 -43.20869011302975
277 -10.803349714614363 26.8601205837126 -15.607409689123337
275 -17.41802472522969 6.700191493313745 9.06491838760732
433 10.624009258932553 0.38485106633752686 -9.260417289884616
439 -4.749087687926543 -12.118049042359482 12.719786471310023
405 16.948430336894468 20.572247029619966 -4.9223671666768976
403 0.18745007070944059 7.05970837974197 -5.053427244098923
87 -14.37065262797178 -7.687492179298591 -12.279420802940905
81 -14.031473288514714 -2.029954900535288 -15.0388481245411
53 -15.790783959635743 -0.4565941111035506 -22.92016226251852
51 5.413743695164937 6.378885037333716 -14.447709472001073
209 -7.5835168475383234 8.405453508707978 -2.5978359210610433
215 26.476511386797267 12.253291284948649 3.4876360318666157
181 -12.925697299886462 21.987745131028184 -20.217548794890174
179 2.2440964959578094 7.411376708006765 -1.8657755618988254
337 -31.65767136162988 26.98890573279064 -10.710400661018305
343 6.6436302283241755 10.492501631441803 -38.01655342823185
309 -8.126503205340287 17.38957523327524 2.596477860297946
307 6.747918752041145 16.15158670101385 -25.843706854219295
465 3.342444685526844 -4.631141646818186 -7.914742271637176
471 -22.015320817435867 16.236503774823518 -9.877483780417009
437 19.814244351811766 -3.5697614804702718 -31.385327126511605
435 8.466833312305177 -14.074354974649422 -10.213161403932606
119 -8.535125993275546 -22.6211965187601 -20.29127101501384
113 10.903005894733148 -37.81012397941299 -9.871688954470516
85 16.339209557493728 1.4330504065041065 -12.768348547175242
83 -1.775037435202794 -14.162425569436007 -8.09131190480564
241 0.6865969423223296 1.479599141772287 30.57794570679151
247 -0.6782948441522052 8.717261333917923 -10.06015941373314
213 -6.315669759014353 -5.651814334782722 3.393384316826665
211 -13.434640159872997 10.540999573547236 -3.586073357445821
369 11.160455390014558 -16.699567630618876 14.317292169905487
375 -19.522131925354042 -2.420888942858598 -20.787791841885614
341 16.864324660250706 11.04363214661243 -3.177532587316519
339 13.506267523702661 12.203489100674535 -1.790325151560775
497 3.1366209832391836 12.834577912677494 9.321736758944136
503 14.422292300296016 15.379379427485574 7.611752420909078
469 18.799254167122495 -8.032716900423342 12.141021550268587
467 24.508576760545854 8.29098885391037 -9.413778151730897
114 -3.0082785780567 -12.565690402314608 3.173858365188335
116 -16.58603814869336 -27.499441458333774 14.936135074671084
118 9.239700600385733 -10.35282869840478 13.786452256581711
120 20.682716812928966 -16.988209904575747 -16.63827149531766
242 19.814620149937387 -7.664453268739577 -0.42141683608066693
244 8.082593082231119 -23.40633526780287 2.1762860295258117
246 17.093896171625193 -3.9280091963908927 -26.419848182585955
248 7.362870968512323 -2.476453293458045 -12.991606851455693
372 9.409035137603416 -0.5033496046509696 -12.954520456489691
370 7.090354003931303 8.655660212199114 -9.844795841864562
374 5.990271495842565 -9.274383950592597 13.329494558619608
376 20.467196766231716 14.315150561980019 -8.355988895818431
498 -0.9326581003069001 -22.32520577588278 1.308711549804084
500 12.308551280414994 -10.370627003231974 0.25174600270636827
502 -0.00901664901000481 17.705339759301893 18.17143939909662
504 6.212054673022864 -1.9540772661356107 -20.888407114551423
18 11.897848814153324 -28.354626976166976 -24.62364147897692
20 6.394253998396092 -19.93083029808699 5.464233996536386
22 -7.537761656191845 -20.720321519167452 -22.523283731674756
24 13.889642446457676 10.2361684895663 12.66000766485899
146 2.4714928458178345 30.744643369029554 16.45547721039369
148 -3.7571057658004934 1.3496824117778827 -1.5384446165095635
150 -0.4059748410436539 -27.914937642755714 0.8585661344015076
152 11.595915044326789 0.8392124143791279 -12.931702477606715
274 -21.208898761867374 5.12586499727088 12.142750096138265
276 -3.9300540497487084 -12.518875368300094 22.117918517311093
280 -35.82198603815507 -13.145467487208542 8.366526794763026
278 6.30018873811773 11.09517478518576 2.2974587791413708
402 -17.159156140440587 7.80647490038198 4.569018171965398
404 -19.86883616897932 19.713306017715684 -17.230741680971963
408 8.604390108268046 14.413085262399028 -33.222937192812516
406 19.65812822083186 -9.058897597358168 -16.84333372582479
50 20.04713689829255 -2.8875683452004024 18.387989837889776
52 -6.018859589703485 -10.202314993085974 17.10488477234411
54 6.165092660685405 -11.032985319600074 18.421428793317105
56 19.13807152545103 -4.423594873125328 -8.166700968037528
178 -17.570116259135386 16.669029675325753 -8.005757331607663
180 -4.44491471722941 12.399892518891097 -9.907011686954098
182 -5.349838697080283 -1.8932473041943496 -18.528670884222635
184 6.9844966695310235 -10.734825962310184 7.296148675026762
306 5.062942155698718 0.042735239305522775 5.934937672720463
308 -3.377216904990477 -9.02153047464276 -1.28250088811775
310 13.608910957367112 27.980975193191767 -14.045837520788526
312 -5.998970072090812 33.7760236452123 0.21249897528001258
434 -4.193201919216389 3.2961575808818595 28.648057338985712
436 23.729149833871812 18.81156403936815 18.597172172353
440 -12.096978196085361 4.804489677758677 5.255628490509317
438 -24.741521033144455 -2.027789312452334 12.085899878554333
82 -15.92844618323565 8.252506204657958 8.060378332910828
84 16.720332173245936 25.71169856355498 -4.317359793319147
86 -1.3343424313510797 -6.18412739024405 23.058500455702504
88 29.151575994751934 5.904864739647646 -0.4512436878709823
210 -26.043382449676074 -17.928565795124314 -9.630612431747444
212 15.36143439110219 4.539056374382151 -13.182011371756547
214 -3.679152199524391 0.026280524091334873 -0.8511532633355504
216 10.111974124117593 9.501537460735504 -13.840531058591425
338 5.684422090059909 -6.801472017218043 15.7080140859944
340 -22.217071850694943 10.066409489591702 -6.424385155462896
342 3.2274924610116633 8.645463628716369 -6.130304376855324
344 -4.5781854827135575 -2.3546339053588503 -6.868819384746301
466 3.2505801992541583 8.397866265976761 6.505478980294148
468 -13.926812478711616 -8.440545104288528 -26.56353067472215
472 1.3173603735259498 -13.985652121212048 -15.763121204180003
470 -26.82036233921383 7.387970338528517 -4.723416414731508
57 1.8829077618598937 -2.326067327840981 27.74011650856815
443 -0.10876119943447281 -4.871116244839598 0.9230122994618538
63 11.479141167557986 8.046173282922746 10.284314093653217
61 27.891081917314324 34.900860499109676 -9.664051118955971
59 2.1144817220356726 20.231386695690055 -22.192573833734233
185 -14.302822582185554 -5.64554203890096 3.394879567736114
191 -25.472415707991804 6.282412360318735 4.431833315081538
189 -2.8151507125099253 -5.0305957757252 17.35923240582515
187 21.28858259883257 13.409751069371723 -6.505274082781493
313 19.336948562066233 5.435220618052189 18.515388448450345
319 12.61842736438896 -5.332976500085758 33.607014125474095
317 22.873122942827106 12.204806530844358 4.25482905310157
315 -29.634074703026496 -23.70763607208497 26.818898810859846
441 3.1884942213863057 2.813750670785091 -10.353489980195864
447 7.482095310088968 -22.558560562689816 2.216205409208764
445 -13.504337402609671 -0.4555492790981327 -2.470183377344787
89 8.201739817626056 1.5961780121068359 -3.3419243551356246
475 -3.5160283047110665 12.423589220536059 -11.02943160468786
95 -18.692771143088773 -13.92525320839081 -16.182885619168186
93 -12.513390972923094 6.874213344454563 -16.648639285517262
91 -8.575134781187222 9.166291231552288 25.81302065516753
217 -1.9076389910119969 -30.644628812838512 25.700301497944437
223 -3.2912205867984956 -23.51047738250303 -17.255139925397906
221 -12.686159943855042 -6.119528006084207 4.361124770430164
219 1.4148190548782567 -19.398527367159364 10.177108156137136
345 22.006352264813735 -2.627355657751466 6.771645211806143
351 25.579535434919535 11.166236907771319 -11.197146287977379
349 8.381862059659639 -1.0527754763123685 -12.117998559880384
347 6.816011373405169 -31.497217491813608 8.430410260674249
473 -25.910258881092346 -5.828449474368514 1.891655022686806
479 0.505550063134402 13.03348637133826 10.571926360586327
477 -20.976724716432553 -10.355392672509712 -17.043947653323457
121 -19.049558907167242 35.51856493164074 -15.176377208738819
507 4.944801975633558 1.8835391004277542 -14.214262625994834
127 25.611398578957466 -29.313441165011504 12.595844060781888
125 -4.863424195449278 -23.77984403945967 -7.091619544979998
123 7.250466769915149 17.863562497907893 30.362785964691845
249 8.224089837266979 6.918341819246221 -29.314294804988002
255 -17.834818486032333 8.451947966567012 4.801807675335054
253 -6.24701733812837 6.008544010138544 -14.533688860260032
251 4.121654891714181 0.6576639716559352 -1.2452181105742812
377 26.79306691617212 -1.978462034642583 -8.809136721438083
383 15.056418049901263 -7.4378704530926765 6.633790741867107
381 -18.175796862602535 0.1169071176074333 -0.02137327238520959
379 16.067015692791276 4.120307514503172 18.776801062924847
505 -31.406490365381135 -5.897913518352382 -16.300997415199973
511 -0.09622579833653915 -1.992070584509457 10.436709299445143
509 2.9394100676655825 -3.171061709867582 -1.936166385140108
25 31.951466071842933 2.3525787177925297 6.528148762756088
411 -5.581533401267109 -12.249542932971531 2.5979386321429243
31 12.945036819465196 20.545051847175873 3.2534985928341267
29 -5.824455132038079 15.83902335913271 -21.238893476428853
27 8.456087234867182 0.5261211080696943 -5.545646339822047
153 5.218173855377364 -6.024691606529781 -25.581675999894134
159 -8.765282917343228 10.182627422364268 -10.730941215347674
157 5.037144188056792 11.289893750233567 -26.52614729138152
155 -21.068793550614622 -22.701247109262187 21.76731033848251
281 10.71581105974983 19.466190066225643 13.942109368436398
287 30.38407212830816 6.941306190941357 -24.63674702220655
285 -10.148587405544253 4.72321192229253 10.031572348048028
283 -1.3810664032802387 -21.44909687186298 -7.967593148696772
409 -27.447252516962617 -7.427335671207158 44.58140063453209
415 3.289013585819696 10.475347141016249 1.9425284321596787
413 -10.449965819210236 6.424019627816523 -3.6019075556591513
58 3.3740302111387175 3.2622572003332673 6.378811105405688
28 22.69274874554108 -32.537079447638924 8.182647885942787
30 29.21770234537153 -21.278978661268514 1.1018567411874522
64 18.85664490415359 -6.16260255884072 -14.991740119483312
186 1.4222548325774087 -10.775864821948852 15.336431075147457
156 7.2752241829873645 -23.685989952709797 -18.572146563357332
158 5.306707035439513 -27.672616711062936 -37.82574001024359
192 13.369165764822583 -13.413645185128592 6.711812121421509
314 18.41844679714241 18.090278238223767 -5.790901303046916
284 24.17619671243546 -8.433455750685665 8.245244744151917
320 -11.546572273587133 17.420064808189448 -11.664139191263256
286 -4.294644183355084 15.563356497298903 1.960034822569873
442 -4.232747398246153 -4.23068090728474 22.03326365293164
412 11.753099311414921 6.433312474448726 -10.662337253457668
448 -4.7904889398097374 -19.98774482181473 0.4046572622077071
414 -4.400555455684728 20.935526399694858 12.14351920770751
90 15.102855553395582 -0.14573524442878358 -54.57371991042927
60 16.305860992798245 -16.534055960869157 -11.47450059777262
62 25.67419797220359 -4.441900774164291 3.424631345811174
96 27.97592629464193 7.8814054627737855 -0.940286800071351
188 -19.260326420668367 24.722109090200505 2.939630215360675
218 -23.599368679907393 18.107751208068237 21.432904453019052
190 -9.920362905243099 5.751106653516496 -19.023946185577543
224 5.384962593309342 10.067136914438507 20.536006574601384
316 5.547458579831569 -22.071893877933256 -6.047620766409651
346 -0.8866582616493199 -5.2717399927554265 11.469337241067079
318 9.867356087361543 26.300476753990782 9.01875093453082
352 5.218053972321573 -2.1450963536090515 9.061940585627086
444 26.59265017826037 -17.833661857655734 -20.549957799330816
474 25.861027017904988 -15.270284506066059 -6.783749575696983
480 -40.27624942396032 -1.3802687285280324 21.09752763239658
446 -16.93195605382908 4.2063636633572665 -21.993434050471098
122 15.849494384102655 -0.9831486394960401 -25.52093353511652
92 4.416224194320097 3.5153423420230023 -7.534275359744086
94 -1.3475348612201288 -0.14776149589498364 6.689213789970038
128 -8.22963338149725 20.522400755277836 4.083657644418498
250 17.012960184397944 6.10062579794443 -0.7371164289824529
220 -27.516885098598188 2.854141335588117 -19.60157357514334
222 -4.5867295736192055 -2.2972289335970797 15.699191430328764
256 7.428599955517875 30.148722136011227 19.322921392716392
348 -11.070811516477564 -14.4091096825822 -16.037158266462026
378 11.52877481796273 5.410577249065982 21.458039381665458
350 1.8434353415516467 -4.954733391828904 16.554167512147096
384 6.470433987573173 3.529765827377285 -24.401198057013293
506 -24.795041816511095 1.3413946837220359 7.137914685799762
476 -18.54831533097042 -2.3715645803369343 7.82216923490802
478 15.559480931537308 -8.018744055548021 8.319044226860717
512 -11.95386715529924 -15.046814162355567 2.8939233791568135
26 3.4330617543009136 7.2714488026587265 -13.057495088220127
124 6.454638790669218 11.20545626232916 -24.27668245441225
126 -0.8106855239986317 8.860411591157394 -0.19619937563610937
32 -13.431299883033498 -29.059965206306202 -7.453816589842681
154 4.844519933988666 11.035231363460763 0.39260587310128503
252 -3.1596497163250645 -16.99568360682305 9.824442606111624
254 -4.884026965950016 -23.404947734210424 -7.885955441857478
160 8.262880839936454 20.634011485819393 -2.86189757620666
282 -17.04608597791887 2.960120128437714 3.2869055906515934
380 18.29786962460235 -10.024647579581357 17.313953459620844
382 24.65387708380197 -1.288031692184275 28.051578923949428
288 1.1422448240454675 -9.457499706881546 -9.824690402105182
410 15.785038806937683 -3.5150784432197537 24.078422175599492
508 44.90559646617558 -16.404566821161332 15.791151050274541
416 -4.970093821361387 11.608719968183904 16.78405518656548
510 1.6013234190364067 1.766360554749183 2.52493534270234
