(written by ASE)

588 atoms
1 atom types

0.0      17.271038820000001  xlo xhi
0.0      14.957158367867217  ylo yhi
0.0               23.409219  zlo zhi
     -8.635519409999997                       0                       0  xy xz yz

Masses

     1      12.010999996910238 # C

Atoms # atomic

     1   1                       0                       0      1.9507682500000001
     2   1                       0                       0      5.8523047499999992
     3   1 -1.2336456014164312e-08      1.4244912802526677      1.9507682500000001
     4   1      1.2336456423364566     0.71224562944264924      5.8523047499999992
     5   1                       0                       0      9.7538412500000007
     6   1                       0                       0             13.65537775
     7   1 -1.2336456014164312e-08      1.4244912802526677      9.7538412500000007
     8   1      1.2336456423364566     0.71224562944264924             13.65537775
     9   1                       0                       0      17.556914250000002
    10   1                       0                       0      21.458450750000001
    11   1 -1.2336456014164312e-08      1.4244912802526677      17.556914250000002
    12   1      1.2336456423364566     0.71224562944264924      21.458450750000001
    13   1     -1.2336456299999996      2.1367369096953164      1.9507682500000001
    14   1     -1.2336456299999996      2.1367369096953164      5.8523047499999992
    15   1     -1.2336456423364557      3.5612281899479843      1.9507682500000001
    16   1   1.233645696707697e-08      2.8489825391379657      5.8523047499999992
    17   1     -1.2336456299999996      2.1367369096953164      9.7538412500000007
    18   1     -1.2336456299999996      2.1367369096953164             13.65537775
    19   1     -1.2336456423364557      3.5612281899479843      9.7538412500000007
    20   1   1.233645696707697e-08      2.8489825391379657             13.65537775
    21   1     -1.2336456299999996      2.1367369096953164      17.556914250000002
    22   1     -1.2336456299999996      2.1367369096953164      21.458450750000001
    23   1     -1.2336456423364557      3.5612281899479843      17.556914250000002
    24   1   1.233645696707697e-08      2.8489825391379657      21.458450750000001
    25   1     -2.4672912599999992      4.2734738193906328      1.9507682500000001
    26   1     -2.4672912599999992      4.2734738193906328      5.8523047499999992
    27   1     -2.4672912723364551      5.6979650996433007      1.9507682500000001
    28   1     -1.2336456176635426      4.9857194488332821      5.8523047499999992
    29   1     -2.4672912599999992      4.2734738193906328      9.7538412500000007
    30   1     -2.4672912599999992      4.2734738193906328             13.65537775
    31   1     -2.4672912723364551      5.6979650996433007      9.7538412500000007
    32   1     -1.2336456176635426      4.9857194488332821             13.65537775
    33   1     -2.4672912599999992      4.2734738193906328      17.556914250000002
    34   1     -2.4672912599999992      4.2734738193906328      21.458450750000001
    35   1     -2.4672912723364551      5.6979650996433007      17.556914250000002
    36   1     -1.2336456176635426      4.9857194488332821      21.458450750000001
    37   1     -3.7009368899999986      6.4102107290859491      1.9507682500000001
    38   1     -3.7009368899999986      6.4102107290859491      5.8523047499999992
    39   1     -3.7009369023364544       7.834702009338617      1.9507682500000001
    40   1      -2.467291247663542      7.1224563585285985      5.8523047499999992
    41   1     -3.7009368899999986      6.4102107290859491      9.7538412500000007
    42   1     -3.7009368899999986      6.4102107290859491             13.65537775
    43   1     -3.7009369023364544       7.834702009338617      9.7538412500000007
    44   1      -2.467291247663542      7.1224563585285985             13.65537775
    45   1     -3.7009368899999986      6.4102107290859491      17.556914250000002
    46   1     -3.7009368899999986      6.4102107290859491      21.458450750000001
    47   1     -3.7009369023364544       7.834702009338617      17.556914250000002
    48   1      -2.467291247663542      7.1224563585285985      21.458450750000001
    49   1     -4.9345825199999984      8.5469476387812655      1.9507682500000001
    50   1     -4.9345825199999984      8.5469476387812655      5.8523047499999992
    51   1     -4.9345825323364547      9.9714389190339343      1.9507682500000001
    52   1     -3.7009368776635418      9.2591932682239158      5.8523047499999992
    53   1     -4.9345825199999984      8.5469476387812655      9.7538412500000007
    54   1     -4.9345825199999984      8.5469476387812655             13.65537775
    55   1     -4.9345825323364547      9.9714389190339343      9.7538412500000007
    56   1     -3.7009368776635418      9.2591932682239158             13.65537775
    57   1     -4.9345825199999984      8.5469476387812655      17.556914250000002
    58   1     -4.9345825199999984      8.5469476387812655      21.458450750000001
    59   1     -4.9345825323364547      9.9714389190339343      17.556914250000002
    60   1     -3.7009368776635418      9.2591932682239158      21.458450750000001
    61   1     -6.1682281499999982      10.683684548476583      1.9507682500000001
    62   1     -6.1682281499999982      10.683684548476583      5.8523047499999992
    63   1     -6.1682281623364545       12.10817582872925      1.9507682500000001
    64   1     -4.9345825076635421      11.395930177919231      5.8523047499999992
    65   1     -6.1682281499999982      10.683684548476583      9.7538412500000007
    66   1     -6.1682281499999982      10.683684548476583             13.65537775
    67   1     -6.1682281623364545       12.10817582872925      9.7538412500000007
    68   1     -4.9345825076635421      11.395930177919231             13.65537775
    69   1     -6.1682281499999982      10.683684548476583      17.556914250000002
    70   1     -6.1682281499999982      10.683684548476583      21.458450750000001
    71   1     -6.1682281623364545       12.10817582872925      17.556914250000002
    72   1     -4.9345825076635421      11.395930177919231      21.458450750000001
    73   1     -7.4018737799999972      12.820421458171898      1.9507682500000001
    74   1     -7.4018737799999972      12.820421458171898      5.8523047499999992
    75   1     -7.4018737923364535      14.244912738424565      1.9507682500000001
    76   1     -6.1682281376635402      13.532667087614547      5.8523047499999992
    77   1     -7.4018737799999972      12.820421458171898      9.7538412500000007
    78   1     -7.4018737799999972      12.820421458171898             13.65537775
    79   1     -7.4018737923364535      14.244912738424565      9.7538412500000007
    80   1     -6.1682281376635402      13.532667087614547             13.65537775
    81   1     -7.4018737799999972      12.820421458171898      17.556914250000002
    82   1     -7.4018737799999972      12.820421458171898      21.458450750000001
    83   1     -7.4018737923364535      14.244912738424565      17.556914250000002
    84   1     -6.1682281376635402      13.532667087614547      21.458450750000001
    85   1      2.4672912600000001                       0      1.9507682500000001
    86   1      2.4672912600000001                       0      5.8523047499999992
    87   1      2.4672912476635442      1.4244912802526677      1.9507682500000001
    88   1      3.7009369023364567     0.71224562944264924      5.8523047499999992
    89   1      2.4672912600000001                       0      9.7538412500000007
    90   1      2.4672912600000001                       0             13.65537775
    91   1      2.4672912476635442      1.4244912802526677      9.7538412500000007
    92   1      3.7009369023364567     0.71224562944264924             13.65537775
    93   1      2.4672912600000001                       0      17.556914250000002
    94   1      2.4672912600000001                       0      21.458450750000001
    95   1      2.4672912476635442      1.4244912802526677      17.556914250000002
    96   1      3.7009369023364567     0.71224562944264924      21.458450750000001
    97   1      1.2336456300000005      2.1367369096953164      1.9507682500000001
    98   1      1.2336456300000005      2.1367369096953164      5.8523047499999992
    99   1      1.2336456176635444      3.5612281899479843      1.9507682500000001
   100   1      2.4672912723364568      2.8489825391379657      5.8523047499999992
   101   1      1.2336456300000005      2.1367369096953164      9.7538412500000007
   102   1      1.2336456300000005      2.1367369096953164             13.65537775
   103   1      1.2336456176635444      3.5612281899479843      9.7538412500000007
   104   1      2.4672912723364568      2.8489825391379657             13.65537775
   105   1      1.2336456300000005      2.1367369096953164      17.556914250000002
   106   1      1.2336456300000005      2.1367369096953164      21.458450750000001
   107   1      1.2336456176635444      3.5612281899479843      17.556914250000002
   108   1      2.4672912723364568      2.8489825391379657      21.458450750000001
   109   1  8.8817841970012523e-16      4.2734738193906328      1.9507682500000001
   110   1  8.8817841970012523e-16      4.2734738193906328      5.8523047499999992
   111   1 -1.2336455125985892e-08      5.6979650996433007      1.9507682500000001
   112   1      1.2336456423364575      4.9857194488332821      5.8523047499999992
   113   1  8.8817841970012523e-16      4.2734738193906328      9.7538412500000007
   114   1  8.8817841970012523e-16      4.2734738193906328             13.65537775
   115   1 -1.2336455125985892e-08      5.6979650996433007      9.7538412500000007
   116   1      1.2336456423364575      4.9857194488332821             13.65537775
   117   1  8.8817841970012523e-16      4.2734738193906328      17.556914250000002
   118   1  8.8817841970012523e-16      4.2734738193906328      21.458450750000001
   119   1 -1.2336455125985892e-08      5.6979650996433007      17.556914250000002
   120   1      1.2336456423364575      4.9857194488332821      21.458450750000001
   121   1     -1.2336456299999985      6.4102107290859491      1.9507682500000001
   122   1     -1.2336456299999985      6.4102107290859491      5.8523047499999992
   123   1     -1.2336456423364546       7.834702009338617      1.9507682500000001
   124   1  1.2336458077299994e-08      7.1224563585285985      5.8523047499999992
   125   1     -1.2336456299999985      6.4102107290859491      9.7538412500000007
   126   1     -1.2336456299999985      6.4102107290859491             13.65537775
   127   1     -1.2336456423364546       7.834702009338617      9.7538412500000007
   128   1  1.2336458077299994e-08      7.1224563585285985             13.65537775
   129   1     -1.2336456299999985      6.4102107290859491      17.556914250000002
   130   1     -1.2336456299999985      6.4102107290859491      21.458450750000001
   131   1     -1.2336456423364546       7.834702009338617      17.556914250000002
   132   1  1.2336458077299994e-08      7.1224563585285985      21.458450750000001
   133   1     -2.4672912599999983      8.5469476387812655      1.9507682500000001
   134   1     -2.4672912599999983      8.5469476387812655      5.8523047499999992
   135   1     -2.4672912723364542      9.9714389190339343      1.9507682500000001
   136   1     -1.2336456176635417      9.2591932682239158      5.8523047499999992
   137   1     -2.4672912599999983      8.5469476387812655      9.7538412500000007
   138   1     -2.4672912599999983      8.5469476387812655             13.65537775
   139   1     -2.4672912723364542      9.9714389190339343      9.7538412500000007
   140   1     -1.2336456176635417      9.2591932682239158             13.65537775
   141   1     -2.4672912599999983      8.5469476387812655      17.556914250000002
   142   1     -2.4672912599999983      8.5469476387812655      21.458450750000001
   143   1     -2.4672912723364542      9.9714389190339343      17.556914250000002
   144   1     -1.2336456176635417      9.2591932682239158      21.458450750000001
   145   1     -3.7009368899999981      10.683684548476583      1.9507682500000001
   146   1     -3.7009368899999981      10.683684548476583      5.8523047499999992
   147   1      -3.700936902336454       12.10817582872925      1.9507682500000001
   148   1     -2.4672912476635416      11.395930177919231      5.8523047499999992
   149   1     -3.7009368899999981      10.683684548476583      9.7538412500000007
   150   1     -3.7009368899999981      10.683684548476583             13.65537775
   151   1      -3.700936902336454       12.10817582872925      9.7538412500000007
   152   1     -2.4672912476635416      11.395930177919231             13.65537775
   153   1     -3.7009368899999981      10.683684548476583      17.556914250000002
   154   1     -3.7009368899999981      10.683684548476583      21.458450750000001
   155   1      -3.700936902336454       12.10817582872925      17.556914250000002
   156   1     -2.4672912476635416      11.395930177919231      21.458450750000001
   157   1     -4.9345825199999975      12.820421458171898      1.9507682500000001
   158   1     -4.9345825199999975      12.820421458171898      5.8523047499999992
   159   1     -4.9345825323364538      14.244912738424565      1.9507682500000001
   160   1      -3.700936877663541      13.532667087614547      5.8523047499999992
   161   1     -4.9345825199999975      12.820421458171898      9.7538412500000007
   162   1     -4.9345825199999975      12.820421458171898             13.65537775
   163   1     -4.9345825323364538      14.244912738424565      9.7538412500000007
   164   1      -3.700936877663541      13.532667087614547             13.65537775
   165   1     -4.9345825199999975      12.820421458171898      17.556914250000002
   166   1     -4.9345825199999975      12.820421458171898      21.458450750000001
   167   1     -4.9345825323364538      14.244912738424565      17.556914250000002
   168   1      -3.700936877663541      13.532667087614547      21.458450750000001
   169   1      4.9345825200000002                       0      1.9507682500000001
   170   1      4.9345825200000002                       0      5.8523047499999992
   171   1      4.9345825076635439      1.4244912802526677      1.9507682500000001
   172   1      6.1682281623364563     0.71224562944264924      5.8523047499999992
   173   1      4.9345825200000002                       0      9.7538412500000007
   174   1      4.9345825200000002                       0             13.65537775
   175   1      4.9345825076635439      1.4244912802526677      9.7538412500000007
   176   1      6.1682281623364563     0.71224562944264924             13.65537775
   177   1      4.9345825200000002                       0      17.556914250000002
   178   1      4.9345825200000002                       0      21.458450750000001
   179   1      4.9345825076635439      1.4244912802526677      17.556914250000002
   180   1      6.1682281623364563     0.71224562944264924      21.458450750000001
   181   1      3.7009368900000004      2.1367369096953164      1.9507682500000001
   182   1      3.7009368900000004      2.1367369096953164      5.8523047499999992
   183   1      3.7009368776635445      3.5612281899479843      1.9507682500000001
   184   1      4.9345825323364565      2.8489825391379657      5.8523047499999992
   185   1      3.7009368900000004      2.1367369096953164      9.7538412500000007
   186   1      3.7009368900000004      2.1367369096953164             13.65537775
   187   1      3.7009368776635445      3.5612281899479843      9.7538412500000007
   188   1      4.9345825323364565      2.8489825391379657             13.65537775
   189   1      3.7009368900000004      2.1367369096953164      17.556914250000002
   190   1      3.7009368900000004      2.1367369096953164      21.458450750000001
   191   1      3.7009368776635445      3.5612281899479843      17.556914250000002
   192   1      4.9345825323364565      2.8489825391379657      21.458450750000001
   193   1       2.467291260000001      4.2734738193906328      1.9507682500000001
   194   1       2.467291260000001      4.2734738193906328      5.8523047499999992
   195   1      2.4672912476635451      5.6979650996433007      1.9507682500000001
   196   1      3.7009369023364576      4.9857194488332821      5.8523047499999992
   197   1       2.467291260000001      4.2734738193906328      9.7538412500000007
   198   1       2.467291260000001      4.2734738193906328             13.65537775
   199   1      2.4672912476635451      5.6979650996433007      9.7538412500000007
   200   1      3.7009369023364576      4.9857194488332821             13.65537775
   201   1       2.467291260000001      4.2734738193906328      17.556914250000002
   202   1       2.467291260000001      4.2734738193906328      21.458450750000001
   203   1      2.4672912476635451      5.6979650996433007      17.556914250000002
   204   1      3.7009369023364576      4.9857194488332821      21.458450750000001
   205   1      1.2336456300000016      6.4102107290859491      1.9507682500000001
   206   1      1.2336456300000016      6.4102107290859491      5.8523047499999992
   207   1      1.2336456176635455       7.834702009338617      1.9507682500000001
   208   1      2.4672912723364582      7.1224563585285985      5.8523047499999992
   209   1      1.2336456300000016      6.4102107290859491      9.7538412500000007
   210   1      1.2336456300000016      6.4102107290859491             13.65537775
   211   1      1.2336456176635455       7.834702009338617      9.7538412500000007
   212   1      2.4672912723364582      7.1224563585285985             13.65537775
   213   1      1.2336456300000016      6.4102107290859491      17.556914250000002
   214   1      1.2336456300000016      6.4102107290859491      21.458450750000001
   215   1      1.2336456176635455       7.834702009338617      17.556914250000002
   216   1      2.4672912723364582      7.1224563585285985      21.458450750000001
   217   1  1.7763568394002505e-15      8.5469476387812655      1.9507682500000001
   218   1  1.7763568394002505e-15      8.5469476387812655      5.8523047499999992
   219   1 -1.2336454237807472e-08      9.9714389190339343      1.9507682500000001
   220   1      1.2336456423364583      9.2591932682239158      5.8523047499999992
   221   1  1.7763568394002505e-15      8.5469476387812655      9.7538412500000007
   222   1  1.7763568394002505e-15      8.5469476387812655             13.65537775
   223   1 -1.2336454237807472e-08      9.9714389190339343      9.7538412500000007
   224   1      1.2336456423364583      9.2591932682239158             13.65537775
   225   1  1.7763568394002505e-15      8.5469476387812655      17.556914250000002
   226   1  1.7763568394002505e-15      8.5469476387812655      21.458450750000001
   227   1 -1.2336454237807472e-08      9.9714389190339343      17.556914250000002
   228   1      1.2336456423364583      9.2591932682239158      21.458450750000001
   229   1     -1.2336456299999981      10.683684548476583      1.9507682500000001
   230   1     -1.2336456299999981      10.683684548476583      5.8523047499999992
   231   1     -1.2336456423364541       12.10817582872925      1.9507682500000001
   232   1  1.2336458521389204e-08      11.395930177919231      5.8523047499999992
   233   1     -1.2336456299999981      10.683684548476583      9.7538412500000007
   234   1     -1.2336456299999981      10.683684548476583             13.65537775
   235   1     -1.2336456423364541       12.10817582872925      9.7538412500000007
   236   1  1.2336458521389204e-08      11.395930177919231             13.65537775
   237   1     -1.2336456299999981      10.683684548476583      17.556914250000002
   238   1     -1.2336456299999981      10.683684548476583      21.458450750000001
   239   1     -1.2336456423364541       12.10817582872925      17.556914250000002
   240   1  1.2336458521389204e-08      11.395930177919231      21.458450750000001
   241   1      -2.467291259999997      12.820421458171898      1.9507682500000001
   242   1      -2.467291259999997      12.820421458171898      5.8523047499999992
   243   1     -2.4672912723364528      14.244912738424565      1.9507682500000001
   244   1     -1.2336456176635404      13.532667087614547      5.8523047499999992
   245   1      -2.467291259999997      12.820421458171898      9.7538412500000007
   246   1      -2.467291259999997      12.820421458171898             13.65537775
   247   1     -2.4672912723364528      14.244912738424565      9.7538412500000007
   248   1     -1.2336456176635404      13.532667087614547             13.65537775
   249   1      -2.467291259999997      12.820421458171898      17.556914250000002
   250   1      -2.467291259999997      12.820421458171898      21.458450750000001
   251   1     -2.4672912723364528      14.244912738424565      17.556914250000002
   252   1     -1.2336456176635404      13.532667087614547      21.458450750000001
   253   1      7.4018737800000007                       0      1.9507682500000001
   254   1      7.4018737800000007                       0      5.8523047499999992
   255   1      7.4018737676635444      1.4244912802526677      1.9507682500000001
   256   1      8.6355194223364578     0.71224562944264924      5.8523047499999992
   257   1      7.4018737800000007                       0      9.7538412500000007
   258   1      7.4018737800000007                       0             13.65537775
   259   1      7.4018737676635444      1.4244912802526677      9.7538412500000007
   260   1      8.6355194223364578     0.71224562944264924             13.65537775
   261   1      7.4018737800000007                       0      17.556914250000002
   262   1      7.4018737800000007                       0      21.458450750000001
   263   1      7.4018737676635444      1.4244912802526677      17.556914250000002
   264   1      8.6355194223364578     0.71224562944264924      21.458450750000001
   265   1      6.1682281500000009      2.1367369096953164      1.9507682500000001
   266   1      6.1682281500000009      2.1367369096953164      5.8523047499999992
   267   1      6.1682281376635446      3.5612281899479843      1.9507682500000001
   268   1      7.4018737923364579      2.8489825391379657      5.8523047499999992
   269   1      6.1682281500000009      2.1367369096953164      9.7538412500000007
   270   1      6.1682281500000009      2.1367369096953164             13.65537775
   271   1      6.1682281376635446      3.5612281899479843      9.7538412500000007
   272   1      7.4018737923364579      2.8489825391379657             13.65537775
   273   1      6.1682281500000009      2.1367369096953164      17.556914250000002
   274   1      6.1682281500000009      2.1367369096953164      21.458450750000001
   275   1      6.1682281376635446      3.5612281899479843      17.556914250000002
   276   1      7.4018737923364579      2.8489825391379657      21.458450750000001
   277   1      4.9345825200000011      4.2734738193906328      1.9507682500000001
   278   1      4.9345825200000011      4.2734738193906328      5.8523047499999992
   279   1      4.9345825076635448      5.6979650996433007      1.9507682500000001
   280   1      6.1682281623364581      4.9857194488332821      5.8523047499999992
   281   1      4.9345825200000011      4.2734738193906328      9.7538412500000007
   282   1      4.9345825200000011      4.2734738193906328             13.65537775
   283   1      4.9345825076635448      5.6979650996433007      9.7538412500000007
   284   1      6.1682281623364581      4.9857194488332821             13.65537775
   285   1      4.9345825200000011      4.2734738193906328      17.556914250000002
   286   1      4.9345825200000011      4.2734738193906328      21.458450750000001
   287   1      4.9345825076635448      5.6979650996433007      17.556914250000002
   288   1      6.1682281623364581      4.9857194488332821      21.458450750000001
   289   1      3.7009368900000021      6.4102107290859491      1.9507682500000001
   290   1      3.7009368900000021      6.4102107290859491      5.8523047499999992
   291   1      3.7009368776635463       7.834702009338617      1.9507682500000001
   292   1      4.9345825323364583      7.1224563585285985      5.8523047499999992
   293   1      3.7009368900000021      6.4102107290859491      9.7538412500000007
   294   1      3.7009368900000021      6.4102107290859491             13.65537775
   295   1      3.7009368776635463       7.834702009338617      9.7538412500000007
   296   1      4.9345825323364583      7.1224563585285985             13.65537775
   297   1      3.7009368900000021      6.4102107290859491      17.556914250000002
   298   1      3.7009368900000021      6.4102107290859491      21.458450750000001
   299   1      3.7009368776635463       7.834702009338617      17.556914250000002
   300   1      4.9345825323364583      7.1224563585285985      21.458450750000001
   301   1      2.4672912600000023      8.5469476387812655      1.9507682500000001
   302   1      2.4672912600000023      8.5469476387812655      5.8523047499999992
   303   1      2.4672912476635465      9.9714389190339343      1.9507682500000001
   304   1      3.7009369023364589      9.2591932682239158      5.8523047499999992
   305   1      2.4672912600000023      8.5469476387812655      9.7538412500000007
   306   1      2.4672912600000023      8.5469476387812655             13.65537775
   307   1      2.4672912476635465      9.9714389190339343      9.7538412500000007
   308   1      3.7009369023364589      9.2591932682239158             13.65537775
   309   1      2.4672912600000023      8.5469476387812655      17.556914250000002
   310   1      2.4672912600000023      8.5469476387812655      21.458450750000001
   311   1      2.4672912476635465      9.9714389190339343      17.556914250000002
   312   1      3.7009369023364589      9.2591932682239158      21.458450750000001
   313   1      1.2336456300000025      10.683684548476583      1.9507682500000001
   314   1      1.2336456300000025      10.683684548476583      5.8523047499999992
   315   1      1.2336456176635464       12.10817582872925      1.9507682500000001
   316   1      2.4672912723364591      11.395930177919231      5.8523047499999992
   317   1      1.2336456300000025      10.683684548476583      9.7538412500000007
   318   1      1.2336456300000025      10.683684548476583             13.65537775
   319   1      1.2336456176635464       12.10817582872925      9.7538412500000007
   320   1      2.4672912723364591      11.395930177919231             13.65537775
   321   1      1.2336456300000025      10.683684548476583      17.556914250000002
   322   1      1.2336456300000025      10.683684548476583      21.458450750000001
   323   1      1.2336456176635464       12.10817582872925      17.556914250000002
   324   1      2.4672912723364591      11.395930177919231      21.458450750000001
   325   1  3.5527136788005009e-15      12.820421458171898      1.9507682500000001
   326   1  3.5527136788005009e-15      12.820421458171898      5.8523047499999992
   327   1 -1.2336452461450633e-08      14.244912738424565      1.9507682500000001
   328   1      1.2336456423364601      13.532667087614547      5.8523047499999992
   329   1  3.5527136788005009e-15      12.820421458171898      9.7538412500000007
   330   1  3.5527136788005009e-15      12.820421458171898             13.65537775
   331   1 -1.2336452461450633e-08      14.244912738424565      9.7538412500000007
   332   1      1.2336456423364601      13.532667087614547             13.65537775
   333   1  3.5527136788005009e-15      12.820421458171898      17.556914250000002
   334   1  3.5527136788005009e-15      12.820421458171898      21.458450750000001
   335   1 -1.2336452461450633e-08      14.244912738424565      17.556914250000002
   336   1      1.2336456423364601      13.532667087614547      21.458450750000001
   337   1      9.8691650400000004                       0      1.9507682500000001
   338   1      9.8691650400000004                       0      5.8523047499999992
   339   1       9.869165027663545      1.4244912802526677      1.9507682500000001
   340   1      11.102810682336457     0.71224562944264924      5.8523047499999992
   341   1      9.8691650400000004                       0      9.7538412500000007
   342   1      9.8691650400000004                       0             13.65537775
   343   1       9.869165027663545      1.4244912802526677      9.7538412500000007
   344   1      11.102810682336457     0.71224562944264924             13.65537775
   345   1      9.8691650400000004                       0      17.556914250000002
   346   1      9.8691650400000004                       0      21.458450750000001
   347   1       9.869165027663545      1.4244912802526677      17.556914250000002
   348   1      11.102810682336457     0.71224562944264924      21.458450750000001
   349   1      8.6355194100000006      2.1367369096953164      1.9507682500000001
   350   1      8.6355194100000006      2.1367369096953164      5.8523047499999992
   351   1      8.6355193976635451      3.5612281899479843      1.9507682500000001
   352   1      9.8691650523364576      2.8489825391379657      5.8523047499999992
   353   1      8.6355194100000006      2.1367369096953164      9.7538412500000007
   354   1      8.6355194100000006      2.1367369096953164             13.65537775
   355   1      8.6355193976635451      3.5612281899479843      9.7538412500000007
   356   1      9.8691650523364576      2.8489825391379657             13.65537775
   357   1      8.6355194100000006      2.1367369096953164      17.556914250000002
   358   1      8.6355194100000006      2.1367369096953164      21.458450750000001
   359   1      8.6355193976635451      3.5612281899479843      17.556914250000002
   360   1      9.8691650523364576      2.8489825391379657      21.458450750000001
   361   1      7.4018737800000007      4.2734738193906328      1.9507682500000001
   362   1      7.4018737800000007      4.2734738193906328      5.8523047499999992
   363   1      7.4018737676635444      5.6979650996433007      1.9507682500000001
   364   1      8.6355194223364578      4.9857194488332821      5.8523047499999992
   365   1      7.4018737800000007      4.2734738193906328      9.7538412500000007
   366   1      7.4018737800000007      4.2734738193906328             13.65537775
   367   1      7.4018737676635444      5.6979650996433007      9.7538412500000007
   368   1      8.6355194223364578      4.9857194488332821             13.65537775
   369   1      7.4018737800000007      4.2734738193906328      17.556914250000002
   370   1      7.4018737800000007      4.2734738193906328      21.458450750000001
   371   1      7.4018737676635444      5.6979650996433007      17.556914250000002
   372   1      8.6355194223364578      4.9857194488332821      21.458450750000001
   373   1      6.1682281500000018      6.4102107290859491      1.9507682500000001
   374   1      6.1682281500000018      6.4102107290859491      5.8523047499999992
   375   1      6.1682281376635455       7.834702009338617      1.9507682500000001
   376   1      7.4018737923364579      7.1224563585285985      5.8523047499999992
   377   1      6.1682281500000018      6.4102107290859491      9.7538412500000007
   378   1      6.1682281500000018      6.4102107290859491             13.65537775
   379   1      6.1682281376635455       7.834702009338617      9.7538412500000007
   380   1      7.4018737923364579      7.1224563585285985             13.65537775
   381   1      6.1682281500000018      6.4102107290859491      17.556914250000002
   382   1      6.1682281500000018      6.4102107290859491      21.458450750000001
   383   1      6.1682281376635455       7.834702009338617      17.556914250000002
   384   1      7.4018737923364579      7.1224563585285985      21.458450750000001
   385   1       4.934582520000002      8.5469476387812655      1.9507682500000001
   386   1       4.934582520000002      8.5469476387812655      5.8523047499999992
   387   1      4.9345825076635457      9.9714389190339343      1.9507682500000001
   388   1      6.1682281623364581      9.2591932682239158      5.8523047499999992
   389   1       4.934582520000002      8.5469476387812655      9.7538412500000007
   390   1       4.934582520000002      8.5469476387812655             13.65537775
   391   1      4.9345825076635457      9.9714389190339343      9.7538412500000007
   392   1      6.1682281623364581      9.2591932682239158             13.65537775
   393   1       4.934582520000002      8.5469476387812655      17.556914250000002
   394   1       4.934582520000002      8.5469476387812655      21.458450750000001
   395   1      4.9345825076635457      9.9714389190339343      17.556914250000002
   396   1      6.1682281623364581      9.2591932682239158      21.458450750000001
   397   1      3.7009368900000021      10.683684548476583      1.9507682500000001
   398   1      3.7009368900000021      10.683684548476583      5.8523047499999992
   399   1      3.7009368776635463       12.10817582872925      1.9507682500000001
   400   1      4.9345825323364583      11.395930177919231      5.8523047499999992
   401   1      3.7009368900000021      10.683684548476583      9.7538412500000007
   402   1      3.7009368900000021      10.683684548476583             13.65537775
   403   1      3.7009368776635463       12.10817582872925      9.7538412500000007
   404   1      4.9345825323364583      11.395930177919231             13.65537775
   405   1      3.7009368900000021      10.683684548476583      17.556914250000002
   406   1      3.7009368900000021      10.683684548476583      21.458450750000001
   407   1      3.7009368776635463       12.10817582872925      17.556914250000002
   408   1      4.9345825323364583      11.395930177919231      21.458450750000001
   409   1      2.4672912600000032      12.820421458171898      1.9507682500000001
   410   1      2.4672912600000032      12.820421458171898      5.8523047499999992
   411   1      2.4672912476635473      14.244912738424565      1.9507682500000001
   412   1      3.7009369023364598      13.532667087614547      5.8523047499999992
   413   1      2.4672912600000032      12.820421458171898      9.7538412500000007
   414   1      2.4672912600000032      12.820421458171898             13.65537775
   415   1      2.4672912476635473      14.244912738424565      9.7538412500000007
   416   1      3.7009369023364598      13.532667087614547             13.65537775
   417   1      2.4672912600000032      12.820421458171898      17.556914250000002
   418   1      2.4672912600000032      12.820421458171898      21.458450750000001
   419   1      2.4672912476635473      14.244912738424565      17.556914250000002
   420   1      3.7009369023364598      13.532667087614547      21.458450750000001
   421   1              12.3364563                       0      1.9507682500000001
   422   1              12.3364563                       0      5.8523047499999992
   423   1      12.336456287663545      1.4244912802526677      1.9507682500000001
   424   1      13.570101942336457     0.71224562944264924      5.8523047499999992
   425   1              12.3364563                       0      9.7538412500000007
   426   1              12.3364563                       0             13.65537775
   427   1      12.336456287663545      1.4244912802526677      9.7538412500000007
   428   1      13.570101942336457     0.71224562944264924             13.65537775
   429   1              12.3364563                       0      17.556914250000002
   430   1              12.3364563                       0      21.458450750000001
   431   1      12.336456287663545      1.4244912802526677      17.556914250000002
   432   1      13.570101942336457     0.71224562944264924      21.458450750000001
   433   1             11.10281067      2.1367369096953164      1.9507682500000001
   434   1             11.10281067      2.1367369096953164      5.8523047499999992
   435   1      11.102810657663545      3.5612281899479843      1.9507682500000001
   436   1      12.336456312336457      2.8489825391379657      5.8523047499999992
   437   1             11.10281067      2.1367369096953164      9.7538412500000007
   438   1             11.10281067      2.1367369096953164             13.65537775
   439   1      11.102810657663545      3.5612281899479843      9.7538412500000007
   440   1      12.336456312336457      2.8489825391379657             13.65537775
   441   1             11.10281067      2.1367369096953164      17.556914250000002
   442   1             11.10281067      2.1367369096953164      21.458450750000001
   443   1      11.102810657663545      3.5612281899479843      17.556914250000002
   444   1      12.336456312336457      2.8489825391379657      21.458450750000001
   445   1      9.8691650400000004      4.2734738193906328      1.9507682500000001
   446   1      9.8691650400000004      4.2734738193906328      5.8523047499999992
   447   1       9.869165027663545      5.6979650996433007      1.9507682500000001
   448   1      11.102810682336457      4.9857194488332821      5.8523047499999992
   449   1      9.8691650400000004      4.2734738193906328      9.7538412500000007
   450   1      9.8691650400000004      4.2734738193906328             13.65537775
   451   1       9.869165027663545      5.6979650996433007      9.7538412500000007
   452   1      11.102810682336457      4.9857194488332821             13.65537775
   453   1      9.8691650400000004      4.2734738193906328      17.556914250000002
   454   1      9.8691650400000004      4.2734738193906328      21.458450750000001
   455   1       9.869165027663545      5.6979650996433007      17.556914250000002
   456   1      11.102810682336457      4.9857194488332821      21.458450750000001
   457   1      8.6355194100000006      6.4102107290859491      1.9507682500000001
   458   1      8.6355194100000006      6.4102107290859491      5.8523047499999992
   459   1      8.6355193976635451       7.834702009338617      1.9507682500000001
   460   1      9.8691650523364576      7.1224563585285985      5.8523047499999992
   461   1      8.6355194100000006      6.4102107290859491      9.7538412500000007
   462   1      8.6355194100000006      6.4102107290859491             13.65537775
   463   1      8.6355193976635451       7.834702009338617      9.7538412500000007
   464   1      9.8691650523364576      7.1224563585285985             13.65537775
   465   1      8.6355194100000006      6.4102107290859491      17.556914250000002
   466   1      8.6355194100000006      6.4102107290859491      21.458450750000001
   467   1      8.6355193976635451       7.834702009338617      17.556914250000002
   468   1      9.8691650523364576      7.1224563585285985      21.458450750000001
   469   1      7.4018737800000016      8.5469476387812655      1.9507682500000001
   470   1      7.4018737800000016      8.5469476387812655      5.8523047499999992
   471   1      7.4018737676635453      9.9714389190339343      1.9507682500000001
   472   1      8.6355194223364578      9.2591932682239158      5.8523047499999992
   473   1      7.4018737800000016      8.5469476387812655      9.7538412500000007
   474   1      7.4018737800000016      8.5469476387812655             13.65537775
   475   1      7.4018737676635453      9.9714389190339343      9.7538412500000007
   476   1      8.6355194223364578      9.2591932682239158             13.65537775
   477   1      7.4018737800000016      8.5469476387812655      17.556914250000002
   478   1      7.4018737800000016      8.5469476387812655      21.458450750000001
   479   1      7.4018737676635453      9.9714389190339343      17.556914250000002
   480   1      8.6355194223364578      9.2591932682239158      21.458450750000001
   481   1      6.1682281500000018      10.683684548476583      1.9507682500000001
   482   1      6.1682281500000018      10.683684548476583      5.8523047499999992
   483   1      6.1682281376635455       12.10817582872925      1.9507682500000001
   484   1      7.4018737923364579      11.395930177919231      5.8523047499999992
   485   1      6.1682281500000018      10.683684548476583      9.7538412500000007
   486   1      6.1682281500000018      10.683684548476583             13.65537775
   487   1      6.1682281376635455       12.10817582872925      9.7538412500000007
   488   1      7.4018737923364579      11.395930177919231             13.65537775
   489   1      6.1682281500000018      10.683684548476583      17.556914250000002
   490   1      6.1682281500000018      10.683684548476583      21.458450750000001
   491   1      6.1682281376635455       12.10817582872925      17.556914250000002
   492   1      7.4018737923364579      11.395930177919231      21.458450750000001
   493   1      4.9345825200000029      12.820421458171898      1.9507682500000001
   494   1      4.9345825200000029      12.820421458171898      5.8523047499999992
   495   1      4.9345825076635466      14.244912738424565      1.9507682500000001
   496   1      6.1682281623364599      13.532667087614547      5.8523047499999992
   497   1      4.9345825200000029      12.820421458171898      9.7538412500000007
   498   1      4.9345825200000029      12.820421458171898             13.65537775
   499   1      4.9345825076635466      14.244912738424565      9.7538412500000007
   500   1      6.1682281623364599      13.532667087614547             13.65537775
   501   1      4.9345825200000029      12.820421458171898      17.556914250000002
   502   1      4.9345825200000029      12.820421458171898      21.458450750000001
   503   1      4.9345825076635466      14.244912738424565      17.556914250000002
   504   1      6.1682281623364599      13.532667087614547      21.458450750000001
   505   1      14.803747560000001                       0      1.9507682500000001
   506   1      14.803747560000001                       0      5.8523047499999992
   507   1      14.803747547663546      1.4244912802526677      1.9507682500000001
   508   1      16.037393202336457     0.71224562944264924      5.8523047499999992
   509   1      14.803747560000001                       0      9.7538412500000007
   510   1      14.803747560000001                       0             13.65537775
   511   1      14.803747547663546      1.4244912802526677      9.7538412500000007
   512   1      16.037393202336457     0.71224562944264924             13.65537775
   513   1      14.803747560000001                       0      17.556914250000002
   514   1      14.803747560000001                       0      21.458450750000001
   515   1      14.803747547663546      1.4244912802526677      17.556914250000002
   516   1      16.037393202336457     0.71224562944264924      21.458450750000001
   517   1      13.570101930000002      2.1367369096953164      1.9507682500000001
   518   1      13.570101930000002      2.1367369096953164      5.8523047499999992
   519   1      13.570101917663546      3.5612281899479843      1.9507682500000001
   520   1      14.803747572336459      2.8489825391379657      5.8523047499999992
   521   1      13.570101930000002      2.1367369096953164      9.7538412500000007
   522   1      13.570101930000002      2.1367369096953164             13.65537775
   523   1      13.570101917663546      3.5612281899479843      9.7538412500000007
   524   1      14.803747572336459      2.8489825391379657             13.65537775
   525   1      13.570101930000002      2.1367369096953164      17.556914250000002
   526   1      13.570101930000002      2.1367369096953164      21.458450750000001
   527   1      13.570101917663546      3.5612281899479843      17.556914250000002
   528   1      14.803747572336459      2.8489825391379657      21.458450750000001
   529   1      12.336456300000002      4.2734738193906328      1.9507682500000001
   530   1      12.336456300000002      4.2734738193906328      5.8523047499999992
   531   1      12.336456287663546      5.6979650996433007      1.9507682500000001
   532   1      13.570101942336459      4.9857194488332821      5.8523047499999992
   533   1      12.336456300000002      4.2734738193906328      9.7538412500000007
   534   1      12.336456300000002      4.2734738193906328             13.65537775
   535   1      12.336456287663546      5.6979650996433007      9.7538412500000007
   536   1      13.570101942336459      4.9857194488332821             13.65537775
   537   1      12.336456300000002      4.2734738193906328      17.556914250000002
   538   1      12.336456300000002      4.2734738193906328      21.458450750000001
   539   1      12.336456287663546      5.6979650996433007      17.556914250000002
   540   1      13.570101942336459      4.9857194488332821      21.458450750000001
   541   1      11.102810670000004      6.4102107290859491      1.9507682500000001
   542   1      11.102810670000004      6.4102107290859491      5.8523047499999992
   543   1      11.102810657663548       7.834702009338617      1.9507682500000001
   544   1      12.336456312336461      7.1224563585285985      5.8523047499999992
   545   1      11.102810670000004      6.4102107290859491      9.7538412500000007
   546   1      11.102810670000004      6.4102107290859491             13.65537775
   547   1      11.102810657663548       7.834702009338617      9.7538412500000007
   548   1      12.336456312336461      7.1224563585285985             13.65537775
   549   1      11.102810670000004      6.4102107290859491      17.556914250000002
   550   1      11.102810670000004      6.4102107290859491      21.458450750000001
   551   1      11.102810657663548       7.834702009338617      17.556914250000002
   552   1      12.336456312336461      7.1224563585285985      21.458450750000001
   553   1      9.8691650400000022      8.5469476387812655      1.9507682500000001
   554   1      9.8691650400000022      8.5469476387812655      5.8523047499999992
   555   1      9.8691650276635468      9.9714389190339343      1.9507682500000001
   556   1      11.102810682336459      9.2591932682239158      5.8523047499999992
   557   1      9.8691650400000022      8.5469476387812655      9.7538412500000007
   558   1      9.8691650400000022      8.5469476387812655             13.65537775
   559   1      9.8691650276635468      9.9714389190339343      9.7538412500000007
   560   1      11.102810682336459      9.2591932682239158             13.65537775
   561   1      9.8691650400000022      8.5469476387812655      17.556914250000002
   562   1      9.8691650400000022      8.5469476387812655      21.458450750000001
   563   1      9.8691650276635468      9.9714389190339343      17.556914250000002
   564   1      11.102810682336459      9.2591932682239158      21.458450750000001
   565   1      8.6355194100000041      10.683684548476583      1.9507682500000001
   566   1      8.6355194100000041      10.683684548476583      5.8523047499999992
   567   1      8.6355193976635487       12.10817582872925      1.9507682500000001
   568   1      9.8691650523364611      11.395930177919231      5.8523047499999992
   569   1      8.6355194100000041      10.683684548476583      9.7538412500000007
   570   1      8.6355194100000041      10.683684548476583             13.65537775
   571   1      8.6355193976635487       12.10817582872925      9.7538412500000007
   572   1      9.8691650523364611      11.395930177919231             13.65537775
   573   1      8.6355194100000041      10.683684548476583      17.556914250000002
   574   1      8.6355194100000041      10.683684548476583      21.458450750000001
   575   1      8.6355193976635487       12.10817582872925      17.556914250000002
   576   1      9.8691650523364611      11.395930177919231      21.458450750000001
   577   1      7.4018737800000043      12.820421458171898      1.9507682500000001
   578   1      7.4018737800000043      12.820421458171898      5.8523047499999992
   579   1       7.401873767663548      14.244912738424565      1.9507682500000001
   580   1      8.6355194223364613      13.532667087614547      5.8523047499999992
   581   1      7.4018737800000043      12.820421458171898      9.7538412500000007
   582   1      7.4018737800000043      12.820421458171898             13.65537775
   583   1       7.401873767663548      14.244912738424565      9.7538412500000007
   584   1      8.6355194223364613      13.532667087614547             13.65537775
   585   1      7.4018737800000043      12.820421458171898      17.556914250000002
   586   1      7.4018737800000043      12.820421458171898      21.458450750000001
   587   1       7.401873767663548      14.244912738424565      17.556914250000002
   588   1      8.6355194223364613      13.532667087614547      21.458450750000001
