LAMMPS data file via write_data, version 22 Jul 2025, timestep = 1700001, units = metal

512 atoms
1 atom types

-0.004168135578302312 21.778977615577475 xlo xhi
-0.004168135578302312 21.778977615577475 ylo yhi
-0.004168135578302312 21.778977615577475 zlo zhi

Masses

1 28.08499999277529

Atoms # atomic

280 1 1.4483425127535374 0.9807315759432664 0.27378346655144703 2 -2 2
11 1 5.103870356266113 2.9395379792977114 2.318102358651707 1 0 -3
168 1 9.210796063156407 2.6837742961145064 0.9613570650852584 4 0 1
50 1 14.064723284584566 1.33886685633371 2.8613783512262048 0 0 2
74 1 15.595708039131365 1.2333436253653927 1.017850090360019 1 -1 5
305 1 21.53805274234653 2.4600551103849995 21.539765912219412 1 -3 -1
102 1 19.111042851491863 1.0806689729785743 2.018514117995779 -1 -2 -1
220 1 2.8725554227414296 2.9362028692799504 1.2398518382999841 -1 0 4
231 1 1.4636832439526597 4.520926921382055 2.1265027031460337 0 -1 -1
349 1 7.688943653760298 5.180013034418922 2.8489555232255555 3 2 0
194 1 7.080323165983393 3.70725893258342 1.0498763422799875 -4 0 4
79 1 13.97986686696796 3.6473150853780627 3.04503826172526 -2 1 -1
202 1 14.16763486139053 3.778077432416431 0.5322616204297705 -1 3 0
209 1 17.43100977434888 4.55876261652152 2.161341934860158 -4 3 2
155 1 16.784816390698513 3.4523077350336715 21.771316966723 -3 -1 -1
271 1 21.060121014036877 4.204710239497296 1.4319464432003568 1 -2 1
364 1 19.42441017274301 3.384625604475159 2.9559641345605665 2 1 1
253 1 20.31079389056181 6.2907904225118925 0.4258639120787726 1 1 0
359 1 2.1265828967935536 6.674581480302196 1.706315822133225 2 1 1
374 1 0.2545004964006121 8.046947869715353 1.1408530755447015 3 0 -1
151 1 3.5468762836998637 8.07193206759053 3.2246734735767832 3 2 3
133 1 5.28823271988935 9.062553150270471 2.0718978243203847 0 3 -2
373 1 8.184587025785682 7.049936421608213 1.5544078045055143 -1 -2 1
315 1 10.459643237612251 7.568880019612036 1.592648573015674 -1 1 2
494 1 14.809521694270474 7.939051141181761 1.0716875801807 -4 2 3
316 1 18.411324324976228 6.519975767168303 1.4121234440498256 -2 -2 0
467 1 18.943548893351707 8.439815258783872 2.7182492205193545 -1 1 3
296 1 2.4842082692179357 11.415832973301091 0.815667713432168 2 -2 2
392 1 0.545750220925709 12.19776875313281 2.1497689549734775 -2 0 -2
5 1 4.58233647965353 11.543682876718547 2.3411208991492742 0 -1 2
109 1 7.240093134190761 11.37803454178673 3.180752481619777 -2 1 2
454 1 10.614367488524836 10.186635951009649 1.2326186756821134 5 2 0
237 1 9.536228001920335 11.429800934085929 21.52907254623645 0 6 -2
289 1 14.954669041513206 11.350536387716806 1.6563771658590447 0 1 -1
185 1 18.475728473536456 10.32359995266083 1.3510256283629025 -1 -3 1
58 1 20.254214485209225 11.620720187434795 0.7207135151835445 -1 6 2
370 1 0.5214746232114512 14.257145277019212 3.156896294460095 3 -4 -1
447 1 3.150226154552001 14.989844789454542 21.771628407008713 -2 -3 -2
384 1 5.8361758764323435 12.920779137647344 0.7522774062771922 1 -1 2
152 1 5.293914300880572 15.135264962218013 1.1640106783178803 -1 -3 3
484 1 8.279522195489928 12.775381001760012 1.3374704770911159 1 0 -1
21 1 11.808220043157519 13.492140201870162 2.6963991814187662 0 -2 -1
13 1 11.419690117172232 12.818813519303076 0.4328250909365817 5 -1 2
61 1 14.715344279974646 13.928736760844505 21.438772806951253 1 1 0
83 1 12.751383911058143 15.917790267435631 3.0924292427247693 2 5 0
35 1 16.17437909759512 13.62646594005706 1.5495383492778168 -1 -1 -2
288 1 18.86972595854078 13.504325309431632 0.34654273480796177 0 1 1
464 1 1.7834386905630677 16.087978098831933 1.739048470138013 1 -1 -2
40 1 5.775580218095651 17.227054097403766 21.64576873367439 0 -2 -2
24 1 7.9862766420156825 15.198975090085499 0.4976959950591779 -3 1 3
441 1 9.898112177373102 16.526992141692613 2.694923583533163 -2 -2 2
130 1 10.442267966753102 16.562922070490387 0.4599521505327563 1 -1 -2
241 1 12.655927325695702 17.22577073787567 1.2830710855202923 1 1 0
100 1 17.623121680917883 16.515016456035468 1.3551655689111548 0 -1 -4
42 1 21.461909571679442 17.496247865690393 1.1632426778329221 -2 -1 4
309 1 19.718002686415947 15.704116965007243 1.1946841324714597 -5 1 -2
352 1 1.7809942956139169 19.13241573105021 1.0085177797450384 1 -3 4
41 1 0.281828664198571 20.93954984773026 0.8646225658224098 4 1 1
113 1 5.550378381028418 18.512626991765487 1.883524273092948 -1 -1 -1
163 1 3.4763235305353177 19.00157344517354 2.562829262920476 0 -1 3
337 1 5.982599858428874 21.175631515494093 1.1025071859405737 0 -3 2
299 1 8.406978605483676 21.093641879983416 2.04409475267378 0 2 -1
236 1 12.300269123346776 21.550716729333494 1.864248802281129 5 4 -3
416 1 10.474153237775841 20.67594701862209 0.28088028062190634 -2 -3 2
490 1 13.597114207492725 19.34087943665079 2.062931331220876 -2 -2 0
256 1 15.81260993018153 19.37015103084744 0.9450951890728185 -1 -4 -1
223 1 17.33585066453742 21.50669566052862 2.0595171233673 1 0 2
244 1 18.427769613300832 18.88590510175672 1.095366727286135 -2 -1 0
121 1 20.26631405653612 19.071947690915902 2.585403595447142 2 2 -2
219 1 1.6218182065892481 1.0143744997029693 3.006888048087185 -2 3 0
95 1 1.86771150482226 2.897847438829911 4.421996165391904 1 3 -1
118 1 0.21038586870793044 2.4008948046780896 5.864896243266133 1 4 0
263 1 5.57158721052286 0.8341041561330459 3.0159877614161545 -6 -2 5
18 1 4.360002353481724 2.684322612786551 5.364655959697267 -1 -3 -3
184 1 7.140844019017428 1.5464116759211497 4.657818010625088 0 1 -2
310 1 9.277970329467257 1.1898310580752702 3.379803524693424 1 1 0
217 1 12.405057240087041 2.935064705999019 4.92399260049363 -5 0 1
411 1 11.555066261842255 0.8013616098781826 3.9977283977476237 2 0 2
20 1 14.780594153790993 1.8464915856836321 5.682453537262084 0 -1 2
178 1 18.219987255253766 0.3012137932319511 5.972118157026912 0 1 0
88 1 20.988145837807274 0.4220962460807627 5.8644082961768556 0 0 0
324 1 1.8839008367321861 5.4961357155794195 4.6890848475170435 -1 3 1
342 1 4.150737042823997 6.3358325370135145 4.633290143819698 -2 1 2
350 1 5.853778402447385 4.425163707546037 4.07059894722737 0 0 2
268 1 7.204425066812379 3.7449227551863404 6.003354541847465 1 0 1
509 1 9.207819222560993 5.0639542440922245 5.181302993754222 2 1 3
325 1 9.90275203596917 3.899469584741893 3.124144030261988 2 -1 0
76 1 11.861990569953658 4.776393737927601 2.307351760095882 -1 0 0
261 1 11.584687892046214 5.274295213772232 5.605981518808503 0 -2 0
165 1 15.782486146002084 4.982190145257839 4.0121142138759245 2 -1 4
52 1 16.477797478723353 3.533463930392857 5.846323013776566 -2 -1 0
341 1 20.176747219942534 3.8144885668080977 5.155559684561355 2 0 2
488 1 7.476839703044936 8.801337436689328 3.0465403005694385 2 2 2
503 1 6.9952749953926565 8.338933976661504 5.198619312887482 -2 4 1
422 1 11.693109679984437 6.9267297628456586 3.6029900012763862 -3 0 -1
428 1 10.728639410112361 8.67491152146054 5.404330437586663 1 -4 1
234 1 13.636478453007523 8.159336372763887 3.206683516698024 1 2 -8
457 1 15.347075630405334 7.266649966213775 5.1374842199049535 -2 1 -1
148 1 13.096572146527764 7.906191287843636 6.344632112028184 1 1 -4
302 1 17.219006190409047 8.698164960714545 4.587514604964058 1 -1 -1
250 1 0.008959666919370148 6.815589741112171 5.220448301388472 3 4 3
377 1 21.279530093955163 8.368677414176679 3.409721980643079 2 3 0
138 1 2.746422139105901 9.422156835659717 4.926130058811155 0 -4 2
226 1 0.7468277585461763 10.26644050992403 3.5215173137572413 2 1 -3
381 1 4.009419632885111 10.835572631816492 6.336374943213317 3 1 -1
478 1 9.403791635002008 12.518340674205401 5.154233254320169 -2 3 -1
56 1 9.926026526955173 10.311076833501211 3.5553614916678136 -1 -4 4
493 1 12.33387750751995 11.454481536548068 4.354147697548732 0 1 -3
91 1 14.241110234267282 10.435867456058078 3.5330327239990496 -2 1 -3
201 1 16.270044464563842 10.83313754691856 4.86229822475158 -1 0 1
210 1 17.685492038819312 11.919907225395622 2.9775737343296695 -6 3 -4
142 1 21.071218228395605 11.5622316573288 5.170139760380433 -1 -1 -1
475 1 2.096588366448838 13.981685224566705 4.8296758482643245 2 2 -2
394 1 4.107840960171771 12.449274710617097 4.576858847736321 0 -2 1
146 1 5.683919012699306 14.314287509062677 5.056293289194774 0 -5 -2
64 1 9.35295473209622 13.845132359472228 3.22299363778344 -1 -3 -1
137 1 7.097966998242876 12.422400303906432 5.677156968830049 -2 2 -3
68 1 12.864289754878543 13.73082443046351 5.49271995471369 -5 3 -1
181 1 15.09667792325326 14.750568561815788 3.205206081354022 -3 -4 1
224 1 15.32260380585695 13.858103537300702 5.5712292128450684 -2 -4 2
15 1 18.261781646567048 15.854885828216512 5.176844148790363 1 1 -1
282 1 19.329938749241453 12.891519841841165 4.232010546431888 -3 0 3
124 1 20.04286801412934 15.200253820276066 3.301938824400752 0 2 2
216 1 1.4101743155702022 17.56318914790741 5.5329653066996265 -5 -5 -2
254 1 2.9710039302149833 16.84851498671602 3.750038060454461 1 0 -3
161 1 5.1811550510984805 16.100149948284116 3.485236196827908 2 4 0
412 1 8.130057789646472 15.69005874320586 4.501719352083294 2 -2 -3
407 1 6.927676974985947 17.85392994932564 4.128938567538754 1 -5 0
397 1 13.020770244480941 16.869563945888203 5.2064107374771345 -1 -7 -1
258 1 15.126915561123711 16.112551347829413 6.301257415501951 6 -2 4
45 1 16.81366342022971 16.634565437499862 3.329474015012796 -2 -4 -4
413 1 21.103441243523516 17.375450006528204 4.143109745623663 -1 -1 0
252 1 19.357533350408996 17.69367333487805 5.6303674483157815 -1 1 3
63 1 6.018867500746277 19.11992865465737 6.082731327154911 5 1 2
400 1 3.6652985158523532 21.38086151379838 3.57103258268444 1 -1 -1
408 1 4.019146159030845 20.47495640729809 5.68649842516325 0 -2 -2
215 1 8.837649700446526 18.97475910723021 3.40834359862366 4 0 1
491 1 11.714996158452939 20.724476504848376 5.424618892788679 -1 2 1
30 1 9.878117818439334 19.15491969517169 5.597683159838798 -1 -1 -1
330 1 13.36523217557932 19.291032465531988 4.529882075942482 0 3 2
331 1 15.147170091608698 20.33267475188888 5.562886209102106 -2 -2 0
140 1 16.41765419806433 0.27570041534214423 4.389303106390957 3 3 0
483 1 17.01163714411143 19.06733196094991 3.6358168109750015 0 2 -1
507 1 20.8573312749625 21.57463724391137 3.0856844848037315 3 -1 -2
242 1 18.97683129280745 19.956478707082724 4.711498250546306 -4 1 -1
62 1 0.9307703307790094 0.8618466674956249 9.054169444207147 -3 4 0
353 1 4.460275045946581 0.6842366111438447 6.909228523061517 3 0 0
203 1 3.436704664572709 0.6249452544904993 9.095105270256184 -3 -2 0
335 1 8.05230498994284 1.426910770531643 8.514698858578218 -1 -2 -1
489 1 6.723116297335319 0.5603765524953586 6.8213662600441785 5 -3 -5
82 1 9.803179841031676 21.274374160367188 8.825236918400913 -2 1 -3
6 1 11.305144576158783 2.458622533454581 7.001145700773408 -3 -2 2
166 1 18.62326564944492 2.628096252254362 6.485688505871878 -4 1 -3
448 1 18.897817004769063 2.9545609795481163 8.87469589331088 -5 1 -3
141 1 0.9183876821939814 3.040020233356784 8.06821010060347 -2 -1 1
243 1 2.8663772644685936 4.408132914308929 8.56131509821814 1 -1 -2
375 1 4.967497308001222 4.544215807203626 7.271950383876973 4 0 -2
59 1 8.96941302088036 3.3511277421201227 7.548751186795139 0 6 1
3 1 8.854891933054212 4.927573722684408 9.36081435016278 3 -3 0
326 1 6.419826413809924 4.152158626615033 9.173013330521833 -5 -2 1
404 1 12.656205259607606 3.8192389818032932 8.338852515241426 -5 -2 -4
164 1 15.05731230192575 3.677223122655978 8.089797805046826 -1 1 1
14 1 16.269735093973054 5.970043148388121 7.079743589569984 0 -1 -2
206 1 20.944269728606844 4.535414140155717 8.669910747921238 -2 2 0
34 1 20.43301653667479 5.648913269238655 6.592285121541452 -3 4 -1
285 1 1.285218481946211 8.141760053534995 6.705092960853627 1 -3 -1
440 1 2.1250549918871764 6.652946331104821 8.839482581572373 -1 -2 2
117 1 21.637550222720662 9.518217227545264 8.103140894474638 -3 5 -1
361 1 0.12129185617124251 6.295879159892067 9.92216688291725 -6 -1 -2
245 1 3.6330444739041985 8.241713881126278 7.654611352137898 1 3 2
273 1 5.341827083430976 7.094955239278639 6.65377179592779 1 -5 0
378 1 8.92189471301175 7.397776422305638 6.160204068807032 3 1 3
255 1 9.084389211850434 7.35332362397934 8.613156273068457 -1 1 3
434 1 6.724202913711485 7.175118681194699 8.715596543806015 2 1 -1
75 1 12.031239574792506 6.381664881936596 7.956100904251144 -1 3 1
487 1 14.955152454674424 7.765897893988742 8.221760425254423 0 -1 2
504 1 18.535803166130588 6.803097906662493 7.398823838471326 1 2 2
505 1 18.253116052241296 8.926166430953927 6.632217332516615 3 -2 0
471 1 2.6385518321093575 12.13100165380622 7.762860118507811 1 -2 -1
383 1 6.394968270655803 10.31427348195181 6.550785761096331 -2 -1 3
474 1 6.492218524468782 9.823396658574962 8.938972479971946 2 -2 0
197 1 9.392851828221747 11.179900462219146 8.406707784305707 -3 0 -3
187 1 11.296231656236792 10.898098126286438 6.7162722487840645 3 1 1
322 1 12.585329307077066 10.067579522597963 9.608681372981374 -2 0 2
192 1 13.565342818839698 10.242909067368727 7.5001825392783825 -1 1 3
48 1 15.609449156347441 11.413880988268282 7.261532410917868 -2 -7 0
211 1 16.59293910441663 9.486429660926778 8.370240063288962 -1 -4 3
344 1 19.799492607308622 10.550071612548383 6.997709873460881 0 0 1
319 1 19.088779040729264 12.102715502234622 8.441088508855104 -2 1 2
419 1 0.6234922178714254 13.178044012500118 6.767351216952306 1 -1 4
307 1 21.41328622418712 14.856420646778343 8.10134239830186 4 3 2
94 1 4.25684343760907 13.795942095155953 9.03941484383019 1 5 1
360 1 4.684247291121046 15.089099379794115 7.094493993976213 1 2 -2
391 1 7.7891106346277486 13.039367289709869 7.988968654700769 0 -2 -2
66 1 8.206584029098915 15.36621549290978 8.699400888415468 0 1 -2
200 1 6.1146747849303935 12.209067082490872 9.658107768195551 1 2 -1
16 1 10.946344108450496 13.569908072281264 6.886980187100703 -4 0 -1
73 1 11.694091947593309 13.422869858245468 9.250255521578863 2 3 -1
498 1 9.448200295428268 15.588581502496671 6.445669748583374 1 -7 -3
80 1 16.301918012951692 13.293148008361118 8.689104091809591 -2 3 2
110 1 17.74307692055368 13.181775560209973 6.024239531530023 -2 3 0
300 1 17.453067335331994 15.416222681342433 9.547443307716037 -1 0 1
455 1 18.90752494884117 14.814275385301919 7.592656921806535 -2 -1 1
420 1 2.29627268957606 15.560466330454185 6.610244947678176 -1 2 0
53 1 1.8777896359982496 16.856027568532763 9.415763571887107 3 1 4
401 1 5.270277847251218 17.460312063105004 7.650998845920289 3 -3 1
298 1 3.1935332735379784 18.29198061492099 8.552708097033126 -2 0 -2
466 1 6.581486401557863 17.03931835576623 9.616712269225946 0 1 3
308 1 11.059565007004892 17.37404587981714 6.30788894135185 -1 0 -3
311 1 12.261883955796966 17.823666998416304 8.372458229542369 0 -1 1
228 1 14.16398379071819 16.441095198229423 8.502655922354688 0 0 1
430 1 16.3687074052978 18.22489910507329 6.2696385362283245 -2 -1 1
328 1 18.61269095319198 17.746247986839894 7.935541590901623 1 -2 -1
426 1 16.36347351750312 17.571433810780793 8.73689661373952 -1 -3 4
195 1 21.607414957707668 17.316652928694765 7.3744829369231875 1 -3 0
81 1 2.22494160159758 19.367463032554927 6.804132584064467 0 -3 -3
179 1 0.4857529749810473 20.887769164406283 7.486404308963007 -5 -3 1
264 1 7.98890130428389 20.01653382618292 7.174362923078914 0 0 -2
279 1 14.130075942699357 21.769796986499422 7.113441263969249 0 -2 1
367 1 11.640954513314508 21.761086861910236 7.396196285017057 -1 -2 2
278 1 15.21093214547312 21.339354677970054 9.032547285236065 -2 -2 -1
171 1 17.582600222159076 21.657225104704192 8.207684692995885 2 3 2
131 1 19.021118120696674 19.884075461620558 9.246766128536626 -3 0 4
2 1 4.444420162291203 1.937506106580015 10.713802003918744 2 -1 -2
301 1 6.804647844793109 1.6002064903217548 10.498759405065297 3 -1 0
339 1 8.737814301060016 2.46971601339184 11.618829316907085 -1 -1 0
431 1 10.527762544752008 1.1969335677755477 10.602752682631708 0 0 0
158 1 12.515509302073383 2.593189750291918 10.230538903182259 -1 0 2
213 1 13.811020628157493 0.28198199732758167 10.926338494868572 -3 5 2
257 1 16.52335425352337 2.090113419629243 9.513123585038702 -2 5 0
39 1 15.97069663501813 1.8797918696792992 11.911261194130603 1 -1 0
86 1 18.187277799321436 0.9598030155558943 12.288635019088362 -3 0 3
355 1 21.466374114148877 0.7332814068628274 10.940614699759424 -4 2 -4
465 1 19.35920483112082 0.8499333025047385 10.08593326835318 -1 -5 -3
436 1 3.7169914416711065 4.177376347937151 10.749212681958713 2 0 2
189 1 5.7088827668171795 6.053803116447635 10.692617898385961 2 1 2
143 1 7.303135690706064 5.900276347584273 12.627327317472666 0 1 -4
186 1 9.172547817726294 4.837834546169373 11.734786944994266 1 -2 -3
239 1 12.824870777250437 4.279656276433419 11.989762060332078 -1 -2 -1
259 1 15.371690235649428 4.15959724662859 12.040362587022429 1 0 -1
429 1 16.11868688792832 5.179562378074767 9.929467406668447 0 1 3
227 1 18.31864733473069 4.96754624290661 10.638674643686254 0 4 -2
390 1 0.4871859410302275 6.080772230035204 12.238683594920689 -1 3 -2
340 1 3.627565613081296 7.527390599634695 10.838234346684652 3 3 -1
96 1 7.641662725245459 8.174304848691389 12.29795871060124 0 -2 1
90 1 12.440921211065076 6.825616455717406 11.442004469203441 0 -1 -2
111 1 11.272672722633022 8.10430901412051 9.838756183694624 1 0 0
506 1 14.830258078940199 7.216777052345969 10.643150139330324 2 2 0
303 1 18.610342491786835 7.019850458850923 9.770055554922019 0 -6 0
386 1 17.422228070144378 8.41580809204539 11.150400540424734 -2 -1 2
180 1 20.638496098989382 8.28118808831839 9.630812523864336 -1 -2 -2
156 1 1.4243887350490205 11.016282976433223 9.410353860110332 -2 2 1
198 1 2.1116228752667205 12.019114828668684 11.924011132172296 1 2 2
363 1 3.8087133616535085 9.679167893904197 9.510669273089336 -3 2 1
54 1 4.647304089660341 11.11520413284869 11.72572887774414 0 3 4
127 1 8.620988134750649 9.150119208432594 10.427275911941884 -1 -2 1
389 1 9.255009668285064 10.970134260286027 12.484822672253369 3 2 -3
132 1 10.791111280872302 11.566011753276458 10.354885125247163 3 0 2
57 1 14.64497246764997 9.85843921212069 10.630407985336454 -3 -2 2
443 1 15.898784090313116 12.134075528007243 10.806519688271626 -1 -2 0
93 1 17.792949276175946 10.844260973611124 10.256503782552004 0 0 1
294 1 20.754295953838476 11.65293179949612 10.090115231916501 -1 -3 -2
476 1 20.632220378020072 9.689713417845894 11.609139459091828 1 0 3
269 1 19.062927041918254 11.796252464005661 12.556938272042471 -1 -3 0
496 1 1.0750398113792752 14.051986406009355 11.735302083060706 1 0 -3
208 1 2.96426323010301 15.191108155470598 10.514328978493191 0 -1 1
456 1 4.72308794248581 13.994095309343868 12.130436423512965 -1 -1 -2
173 1 7.266398332612959 13.321158903907845 11.569436583245533 1 1 4
343 1 7.81131933221195 15.843449940051302 11.72651346470334 -5 -2 -1
248 1 10.023336819114768 15.030309361329557 10.45753712695871 2 -1 2
481 1 9.698401634672155 13.464601378592642 12.571924983991426 -2 3 -1
293 1 14.022829025838584 14.307146677363939 9.591175451953596 -1 -3 -2
232 1 14.039983987402275 14.326171648659585 11.991558906032926 0 3 -2
266 1 17.423116908237393 14.993374491514288 11.859167420288347 2 0 1
291 1 21.097524444670153 14.017936426553993 10.42867716684777 -1 -2 1
31 1 19.484363373954878 14.14665118774621 12.29866539944078 -6 0 3
157 1 0.22252807634780278 17.565976256678443 10.718720246679057 0 -6 2
123 1 4.784343514056415 16.626899438158944 11.419936745482977 -3 0 2
425 1 11.103552100380302 17.126040563377423 10.615154237570405 2 2 0
284 1 15.08244652709633 17.164214229790026 11.27230080327733 1 -3 -2
449 1 12.80135392040968 16.548055349879483 11.994958155662816 0 2 -2
432 1 19.955398343382388 16.413299157581196 10.366990547956934 -2 1 1
421 1 2.2838165176073795 20.10780470853006 12.166618619827437 7 -1 1
44 1 0.22234404157586182 20.39153540123695 11.394910195649278 -1 1 0
176 1 3.8529716337957844 20.20734934115663 10.00984703592628 1 1 -1
147 1 6.189369517128482 20.92796830419159 10.301196879999079 1 0 3
351 1 7.716054872218458 19.321593365752864 9.391966087454565 1 3 -1
97 1 9.672657614572943 19.335246198398078 10.912056731759803 1 -2 0
369 1 11.741002133428362 20.3876904699146 11.650367515667416 0 3 -3
376 1 12.341928017276295 20.161137370534988 9.206281189571994 -2 1 0
71 1 15.575906916349743 19.454558537231115 10.745544026490604 -1 4 -2
150 1 17.885839278608078 19.21766659839008 11.153835735912772 -5 -3 -4
287 1 21.202994079816012 19.312805102374814 8.934744534263206 0 -3 -1
10 1 0.7502893156653828 2.0818736875520663 12.712964160994753 -2 1 -1
320 1 2.345793360684786 0.4329322194569772 13.405283330053193 4 4 1
473 1 4.382096808087736 1.3708958052174072 12.839703585737201 -2 1 3
262 1 8.13762301798489 1.1935405444175748 13.789794481500925 -1 -2 -3
70 1 8.83765912995072 2.784843510632144 15.3914315478373 -3 -2 1
275 1 6.012494488266112 21.75980708382626 13.916618453800181 3 0 -4
479 1 10.687043069442579 0.36125330757966434 13.10627597786687 5 -2 3
196 1 12.481272202192459 1.3049956860242613 14.393979997392522 -3 4 -1
122 1 14.48466281282581 0.5731350266267696 13.673179999713973 -1 0 0
385 1 21.002528339036083 2.415420477200038 14.577059243163752 1 -2 -1
414 1 18.842363088868836 2.618747859553755 13.550541238203373 2 -2 -1
277 1 21.073744379023186 0.14783153032232388 15.250847124814028 -2 1 2
292 1 2.046706661279357 4.1825627613805505 12.425967968600304 3 1 1
435 1 2.631578073969212 4.871283445136082 14.596223536762855 0 0 1
346 1 4.324752244890567 3.417568590593364 14.357670373281936 2 -1 3
510 1 6.1103745612259 5.252921789486391 14.597863967335783 4 3 1
116 1 10.685407426606165 6.024965837677454 13.112523985477578 -4 5 3
499 1 10.343826357797456 4.684822452385839 15.254120700133779 1 -2 -3
304 1 12.437156169978017 3.9858147997077706 14.415194358362072 -5 -1 -4
327 1 16.623666710925264 5.136736512167142 13.811993117348003 -3 1 1
460 1 18.677197882445697 4.760005094753046 12.823987179566664 3 0 0
9 1 1.9444465796782782 8.073222941373283 12.557621002893535 -1 -1 -1
230 1 2.640880532242042 7.228857016832412 14.671502680255905 1 3 -3
368 1 4.9987721532275025 7.653179208627741 14.964186825488985 4 2 -1
470 1 5.230578331051338 8.746939380745252 12.45660538056132 5 1 0
433 1 8.776604071832772 8.18772696554003 14.35741308754438 0 -2 0
128 1 12.56992494287605 8.497530836973281 13.244437488014759 1 0 1
270 1 13.884314309118077 7.291885655344472 14.654625303620808 -5 3 0
380 1 15.888121120546256 7.436036172322958 13.223914360336899 -1 2 -2
500 1 16.62745374482162 9.171314965731614 14.85572553993448 1 0 -2
313 1 20.110546663048897 6.512470186005414 13.478119779530944 -5 1 2
379 1 19.012910576300555 8.703083713965665 13.235520808309584 -2 1 0
334 1 0.9352836668230526 10.14544452456939 12.594978610060405 3 -7 0
371 1 0.40057395569468035 10.508401146938619 14.6889858932956 1 1 0
472 1 3.5146175099040864 10.134200469278415 14.250808614595803 -1 0 3
396 1 6.86081872817228 11.400660857937664 13.175524119795245 -1 2 0
46 1 6.205564932245259 9.91017161490444 15.1526352373622 -1 -1 0
43 1 10.519528119096472 9.577134310352136 13.818081223165604 -3 3 0
338 1 13.594943438283718 10.469153312505066 12.730541958882524 0 3 -1
444 1 14.546131843381353 10.541964411041734 14.973202616395916 -3 -1 -1
25 1 17.38601086143454 11.564782238946389 14.345016134138843 -5 2 1
72 1 19.728739416347057 10.576938484662298 14.952735274091122 3 -2 0
437 1 3.117007275475648 12.419861843125602 14.153740171655791 0 1 2
27 1 0.774247747400112 14.764971176741549 13.88520647598868 2 5 2
410 1 0.9567241670627634 12.79650933087615 15.257928020795092 5 0 -1
28 1 5.104579745106765 14.818105940265498 14.45209550266927 0 -3 2
144 1 6.857931437273303 13.101867128421512 15.155938050237104 -2 2 1
170 1 8.59728805312082 14.339944267259822 14.648504706941416 -2 -2 0
458 1 12.271111992172454 12.788767618314985 12.57966270025794 1 3 4
207 1 12.334221450127474 12.911076644171315 14.946330768143424 -1 0 0
229 1 15.40829641966646 14.943607071872227 14.751288151691458 -1 3 0
461 1 16.116056715956788 13.326186614993789 13.088029292996595 3 1 1
445 1 20.18437631857195 15.025349007804417 14.30535166492927 0 1 0
403 1 0.585628534883953 17.199638958902284 13.114786840247596 5 -2 1
512 1 2.94771411972784 16.14997849847454 14.75336667326378 -3 0 -1
463 1 4.733614097682778 18.18330672250207 13.139794393836 0 0 4
172 1 6.219489055462841 17.315744654627146 14.772791739111003 3 -6 -2
221 1 8.229098387335402 16.928519443128838 13.559698732768824 2 -5 -1
69 1 10.05973152912946 16.912460168525655 15.22145680174128 -3 -1 0
260 1 13.189484342178337 15.977351759676067 14.498829967583651 2 1 2
104 1 16.315442640807017 16.981282223522683 13.375316984541513 1 4 -3
290 1 17.347525395690663 15.366144024744345 16.189828274382673 -3 -2 -2
511 1 18.73820545774458 17.362763658395675 12.278520036153697 0 -1 2
98 1 20.426654583246385 17.827363162190117 14.140921220339349 1 1 -1
199 1 2.425149820084254 18.44697211489403 13.95482676924701 0 -1 3
204 1 1.6241018444689583 21.763036153862497 15.667466476161467 1 -2 -1
251 1 6.167188942513246 19.830668413935317 12.580256914014132 -2 1 -1
120 1 8.329065840065322 19.333801809143974 12.906801628160725 -1 2 2
145 1 9.330913004576258 20.611315224401114 14.606534626913245 5 -3 1
106 1 11.1566451489767 19.24133641743557 14.770962954065515 -5 0 -1
406 1 12.622777355984221 18.889021216625736 13.114405072295183 1 -1 0
191 1 14.544096202751087 20.098237650248233 13.164530117672 0 0 0
297 1 15.86907014087421 19.09731305512579 14.788590878502374 1 3 -2
388 1 17.505059325958403 20.591894406943172 15.36850364890916 4 -1 0
115 1 18.633103700110517 20.487277164795294 13.187459218059892 2 0 -1
423 1 20.843995808344832 20.20576881764651 13.580013777923398 -1 3 3
65 1 3.29052454576012 1.7897118487193577 16.30263368814945 -1 3 -1
218 1 5.500146816061542 1.435968139832074 17.654220796069787 1 2 1
295 1 9.27753491096916 21.561854255234703 18.702402251696633 1 0 -4
246 1 10.003551941846025 1.9141886263281311 17.38923351648131 -1 0 0
439 1 12.20940959693758 1.915032157126219 16.907537215747688 -1 -1 -5
26 1 13.402501009954769 2.88023817469259 18.536162166565692 0 -3 0
214 1 14.96089492139651 0.43631845661877516 17.701564755625732 -1 -1 0
323 1 15.972846543860571 0.5130266938232174 15.57638430018174 -3 -4 4
153 1 17.536537023550046 2.3280771906416753 15.776320949093503 0 0 3
462 1 18.570421572950398 1.7293920386304604 17.763380489880447 -1 -2 -2
29 1 1.9407273368874527 3.8597534981917874 16.46934811722689 -2 0 3
78 1 1.9951990576668337 5.184396105068244 18.50170703769498 0 -2 -4
77 1 4.174560360928017 6.09652807257969 18.779715540367484 1 2 3
314 1 7.701148124631264 4.893847456207115 18.09616144851636 1 1 -6
485 1 6.657526035901891 3.5161970576321906 16.3116278587891 0 -3 -2
427 1 10.905549259600663 4.8786566690824955 17.820795020574334 0 5 0
55 1 14.179895565754933 5.153065241726148 15.567694015400303 0 1 3
492 1 13.39252102000747 5.152955030002161 17.9482590715155 0 -1 -2
358 1 15.82020018688215 3.309836331137826 18.31950407337372 3 -1 -2
8 1 16.61601461936384 4.390837719744009 16.4113900582873 1 3 0
497 1 18.099047764615786 6.08267857350236 16.751311364834834 0 0 1
450 1 21.353504830584633 4.013121594485513 16.31534065761159 0 -3 -3
37 1 20.173008071072903 3.4740077848997246 18.248997101137064 -3 1 -3
501 1 1.5093949511785356 8.852154628933354 15.987042859611064 2 0 2
283 1 0.7024049875638863 6.980102168191208 18.850353406234152 4 -1 0
235 1 5.095886745674631 7.733924424943489 17.26675256573995 6 0 2
60 1 7.506546860637428 7.572718217796376 17.677039994640808 -3 0 -5
17 1 8.295586526068053 6.134460217531702 15.52934398933288 -1 0 1
453 1 15.38059697904318 8.582175697632925 18.02824739413916 3 -4 0
105 1 13.589010693321411 9.03949902753596 16.40790568604666 1 0 1
36 1 17.27462169013466 8.284458208033369 16.950265360359605 -2 0 2
183 1 20.27120878392114 6.080857572315713 15.785540590897451 1 2 2
101 1 21.532787520662072 7.6318836900110805 17.057239796187897 1 1 -1
362 1 2.166046215338073 10.334997890102562 18.10934056616178 2 -2 4
442 1 4.857964375711653 11.266074111685557 16.541624620832152 3 1 -2
84 1 4.617624884395286 9.892538492469926 18.33338782474225 -1 -2 1
177 1 8.253002402996998 9.6024898308371 16.277545675931428 -1 0 0
333 1 9.472058501137134 11.109779199070935 17.47633148105657 2 1 -2
502 1 11.448357182874156 10.847013008783957 15.609369067642731 1 2 0
469 1 11.799253003372497 9.905370197995987 18.152286269017672 -1 2 2
345 1 18.40822552517483 9.803386385275301 18.4606925731315 0 -3 -1
99 1 17.36245288184769 12.101845259657381 18.541519092851093 -1 1 -1
222 1 20.67730734403163 10.020863430953785 17.408066595264575 2 -1 -1
87 1 1.6429085300106134 14.017167233936085 17.07659193778769 2 -2 -3
276 1 3.9871038639133354 13.695897753209353 16.50894988324366 -2 -2 1
477 1 5.927889715736583 14.456912408897178 19.204229844676128 0 5 1
317 1 6.91516778787292 12.490873200747329 17.88960971807574 -1 -1 1
238 1 11.436413729814783 14.869298660021604 15.82343466972745 0 0 -1
67 1 9.585261573463484 13.42384454740079 16.962559937000233 0 3 -4
7 1 14.570323309994492 12.913638308875004 15.787326937638136 1 -1 0
480 1 14.033808869684187 13.144332699539415 18.24997889645737 -4 -4 1
38 1 12.3226532386737 14.904863987241109 18.101291960399394 2 -4 1
486 1 17.664156627530964 12.999997420663195 16.38017135565639 3 -1 -1
347 1 20.093693654803143 12.88704541794858 15.825203522807623 1 -2 0
356 1 2.3266952528773586 16.3685052277834 17.215883373820883 0 -3 -1
415 1 0.5983289375235427 18.36132567230512 17.16717391592504 -1 1 0
134 1 5.92267773322345 18.019264107635717 17.05181685533395 3 -1 0
312 1 4.504542663359892 16.237589097527913 18.243911124473335 4 2 2
19 1 7.923138263266403 18.586264461583195 18.08219672672592 0 -1 -2
446 1 9.65696269885007 17.110196322327123 17.603261698777178 3 -3 -2
272 1 14.281110178042667 17.675323393135617 16.180280329468026 1 -2 -3
193 1 15.765683546196593 16.27051833131749 17.869987602161594 3 -1 4
405 1 19.71620836646318 15.700054811423223 16.787698183628418 5 0 0
162 1 20.128484249720604 17.98127148143257 16.405706356157452 -2 2 -1
149 1 2.2482009607874955 19.44423258967239 16.10245339805553 2 -4 -2
424 1 6.059689515500108 21.13066266359807 16.212281738583144 6 1 0
114 1 4.298761403898916 19.68598880822324 17.278936167172397 0 -1 2
398 1 8.18559781020812 20.349746117833536 16.740649493502023 0 -3 0
329 1 12.225266781176051 19.233595411376808 16.765045402579503 2 2 0
233 1 12.839782532769622 21.40899967762049 17.515261865533546 0 1 -1
205 1 20.087634454717488 21.635283846004743 17.321532980872004 -4 4 -2
136 1 18.701103919178806 19.89568526295471 17.20009647521536 3 -3 -1
306 1 1.6048416444427318 1.0890282764573582 18.148084305172638 -4 1 -1
281 1 0.643877068204634 3.016937110051766 19.245244832200207 0 -3 1
160 1 2.970659071790836 0.35367529934367503 20.151467409404024 1 1 -1
332 1 4.682641534696969 2.2761063799652916 19.92689070621356 -3 2 -1
354 1 6.321233499043473 1.694684112857835 21.43600458520931 2 1 -3
409 1 7.106464020536588 0.09097126498103515 19.27955249333753 -1 -1 0
190 1 8.813548721842462 0.6946933760210172 21.5765726936231 3 2 -4
249 1 12.87136007123089 0.316111960418196 21.156307851445053 3 1 -3
451 1 12.708412556678685 2.7275105483874325 20.746927903172256 2 4 0
32 1 17.25055908975844 1.621889675736398 19.7334229168936 3 2 -1
357 1 19.2449875040878 1.5473939640736711 21.447173189596825 -4 -1 0
175 1 2.853804419741289 3.594273598632034 20.575140648038158 0 -1 0
51 1 3.61897025419765 5.658833874121418 21.7664880899079 3 2 -4
495 1 5.983221384506824 5.209328954337963 21.457058163358575 4 1 -3
286 1 5.771163776743196 4.318281364933798 19.305528671848727 0 -1 -1
321 1 9.384125340002718 3.4722220979817187 19.086128085847196 3 1 1
33 1 10.619792653877559 3.7524283089310915 21.190843351621528 1 1 -5
265 1 11.26425771976702 6.143070375314539 21.676483936684004 -1 -1 1
372 1 16.279557088177263 5.190515220512049 19.86040095138227 -1 1 2
188 1 18.60101595459186 5.123712787873747 18.816529039147238 0 1 -2
23 1 1.6375180969228957 8.870920920285158 19.736866483645677 -1 -1 -4
387 1 5.397861279430404 9.020352396342412 21.448153143003424 2 -2 0
212 1 3.6428189806661866 7.806535159138912 20.332328973526412 2 -1 3
125 1 7.160510287277387 7.27589937906915 21.165636463034563 1 2 1
167 1 8.717809632992376 8.25883402695557 19.57926258541546 1 -2 -3
49 1 10.803269045545365 6.847760312713178 19.453942044702877 -2 0 2
85 1 14.29445444483133 6.8376854911465275 19.388002875665553 -2 -2 4
438 1 13.898397094875268 5.944749711731116 21.64859897021482 -3 0 1
482 1 12.509141050362022 8.380550429125432 19.944703824804446 -1 0 -1
393 1 16.93653917135307 7.1154709512032674 21.579180113796767 -3 -2 -1
129 1 20.23501806170727 6.811612591605389 19.74627122312755 2 2 -1
399 1 18.83094692042221 8.630896389118725 20.60531900050026 4 -1 1
318 1 0.9924074933503689 9.89522779324559 21.522348203040565 -3 0 -3
47 1 1.2955491298692687 12.281655964409921 18.761239525410215 0 1 1
139 1 5.80101310711475 10.85295152137332 20.08084411606747 -4 -1 2
89 1 8.309198026993053 10.66207012047027 19.683832487614293 0 0 -4
135 1 12.914587371892297 9.32740517926809 0.408601200890861 3 -3 0
92 1 13.594840765108335 11.14769221930877 19.32123204895449 -2 4 2
169 1 13.46840473149481 11.889098644072304 21.560217067554227 3 -2 2
247 1 15.778479415629684 10.397101682520882 19.661836818896223 -3 3 -1
395 1 16.28035446201181 9.84683511098107 0.2663601114318113 1 -1 -1
468 1 20.787143444325242 10.507307438873498 20.22374601792605 1 -1 2
402 1 20.639247702294337 12.570056938619551 18.305649731022594 1 0 1
382 1 2.589212695769173 13.010681595307608 20.66010581549625 0 0 -4
112 1 4.9100267106691105 12.92329665707356 20.414177612456577 -2 4 3
418 1 7.817981525160548 15.76320636373029 19.860351679125603 1 1 5
267 1 9.871465888892654 14.939644689553447 18.91652372786359 -1 2 2
365 1 11.584789260245469 14.765521171018168 20.956012215863485 4 2 0
508 1 15.942992434137151 14.137696305153172 19.44729608618793 1 1 2
225 1 18.738027728365157 13.738806261465266 19.790819800219527 -4 2 -5
274 1 2.5910412674763754 18.874376375817587 20.610816749379904 2 0 0
459 1 3.712442776937466 16.80251133671619 20.333783135998946 2 -1 0
154 1 7.456606216534368 18.2352540904909 20.15512679674987 0 -2 -3
1 1 11.20923152239387 18.546752137395693 18.946933420002146 -1 -1 -2
103 1 13.73385364009636 16.185380289474693 21.1055981391989 1 0 -1
126 1 13.132290102587014 16.83410778777662 18.71885950375676 1 5 3
366 1 15.989464044707638 17.15430059883174 21.344131300613633 0 0 -4
240 1 17.21750116781478 17.297040856794307 19.324314497013734 0 -2 -2
22 1 19.28127118651651 16.091231581870222 19.160955232765737 -1 -2 0
4 1 20.689675054058657 17.55001061059876 20.62664572825127 -2 1 -1
174 1 0.4188657714279949 19.051715527768557 19.474774698294866 0 1 -3
107 1 4.045265930054591 20.09015520178031 19.47997777832981 -2 -1 -2
348 1 6.170709786456292 20.197176996265366 20.472621442985798 1 -1 2
182 1 9.963603841182515 18.43653196852876 21.06189089265296 -6 0 -1
108 1 11.402887971619753 20.945180199410526 19.49743932843863 -3 -1 -2
12 1 15.02810460802113 21.177708276921322 21.252914371820054 1 -1 -2
119 1 17.60837349811797 19.45419066961225 19.27111367326655 -1 0 -2
452 1 16.250648668514348 21.335371666068614 19.544496133964056 -1 3 2
417 1 21.570600077033983 21.35178589062883 18.889467102595614 1 2 0
336 1 19.193453164310856 19.437518348412254 20.894757830399243 -2 1 -3
159 1 20.344036061393055 21.388764215761768 20.95317600677805 1 0 -3

Velocities

280 -0.13181787249313262 -7.812170290738319 1.296364002797095
11 -4.651638569870201 -2.50649502166726 9.900313964434625
168 -1.3124271159031276 -3.8062829415727153 1.2622453337693869
50 5.296032856933422 4.04571846338359 3.986160661647931
74 10.384043120742756 -0.8414715669831554 1.8198466516811207
305 0.5076301515045237 11.82832212809709 5.76692591921689
102 -4.658013464034409 1.4910804319633981 -4.330105183669764
220 -4.226503811438627 -15.157157490763526 -1.6843126749310138
231 -10.169896927625025 -4.304906300534028 -3.75979838615616
349 -1.0083680310893823 -3.513993071351132 -2.1638525711976877
194 -7.602272069797722 -12.484918876891763 -4.321078505136998
79 -2.4499286103384366 -1.8204798890987022 -4.561261950001625
202 -2.486133263339372 8.140435351547744 1.0455156350996164
209 -6.51623045052714 4.029688089502394 3.859403862548744
155 -2.99420786908702 -5.269861320944168 6.181613019825811
271 8.763684818082432 0.8596585725292039 0.47008364167183647
364 -0.9131613389870494 1.1641212762850726 0.29419382927942683
253 0.19545644447868507 -1.7128916693573903 7.432551352416092
359 -6.383832132093263 -1.4653216193889311 -3.8538878020249046
374 -10.257230505097684 4.898273601027819 -1.1329033064526983
151 0.276071065660853 -1.1056241133664155 0.4780473604383042
133 4.250872642351733 -0.6027237307789248 1.8315116471750965
373 -8.811251705832307 -1.3606677402014382 -4.874115210935258
315 -1.9069846220158222 1.7722180186074972 10.421680406860082
494 -12.034568345810257 13.82508222080648 -3.984576920431182
316 11.710190268608672 6.386767117080045 4.115812495576169
467 -5.297786417372844 4.512829546660467 -9.708484862501217
296 -14.938381607189926 1.6798080411445209 7.428827240185434
392 -3.3367684727066362 -7.898001941585444 -1.0947807077574578
5 -6.081331905080809 13.790569863896092 -11.28835513735877
109 -2.624303165180337 7.80516118865457 -0.1725204336193772
454 -7.28400627378189 -5.191136635460523 -2.0229792988529973
237 2.359601889432224 7.933895961879205 -3.520979527904159
289 -6.970694745848864 5.797823475835802 6.72314585453666
185 4.750624779452342 7.158650104353565 1.4207516928075297
58 1.8778264002707752 -3.4087260275886013 -2.3462985290206495
370 -8.389136276904075 -1.7208302946356078 -10.106899462697523
447 7.467556314838228 -5.572497435162302 -0.9301387246900648
384 7.978293461397917 12.199730323373418 -2.5159316180282834
152 -0.21916807315150066 5.222226162576045 -5.822096985526428
484 6.247181447330953 6.676212704756227 -6.510735007580271
21 -9.291043895700588 3.1996143453160677 1.4132619747154282
13 4.417502088183829 -2.1465302436352123 -2.601092992746883
61 0.5220739475558677 10.086572144957733 0.38149430740475226
83 -9.300890471638393 0.7148857121579512 5.679811948793156
35 10.977540457017769 0.26469898191000335 1.2214529744585017
288 5.82898131691082 2.8441997378816617 4.595415731742218
464 -4.056039099934469 -5.686551139164084 -6.339526169941922
40 2.687928248000438 5.6755984890217395 0.371199588198486
24 -1.254878154186011 1.4231963592237478 -1.3919353730564887
441 -1.5250541967381939 -8.837647817485054 -3.2048482929099733
130 -10.969908923791127 1.8138752490321737 -1.429606503843073
241 0.16217893359539 -0.4699232711408226 1.2853498746927834
100 -2.5918115323438164 -3.162129732249108 6.40611406754406
42 -4.661473154878076 -0.5337158751757777 5.8867102917084155
309 -4.13276073519341 -4.48971333008221 14.629789623614448
352 2.207193856840596 -2.149698167993598 3.696433961696368
41 0.21258044415750024 -0.9516883377183761 -6.561240237302864
113 10.32301460187675 -7.637786269285499 -8.732184285879974
163 14.744707363837874 7.237530538186449 -0.34528225611939134
337 8.7844995926748 1.819679421031402 9.231086237595372
299 3.87874555885505 2.967561157830048 7.791523081576333
236 -6.4356120054223265 0.6509884095078766 -2.003931569315733
416 0.18436476163430587 6.141617832049782 -1.0992438688696056
490 6.79238691340764 9.253807022042965 3.3694092857848643
256 -6.757470883169272 -6.040669410402863 -0.2129215357142197
223 -3.21304748501839 0.68551342445508 2.9104314009210492
244 -2.079736689752562 -5.448621140150501 -3.429372439279605
121 1.6303285193020627 0.7921480140087 -3.8962446612024766
219 -1.3591493324118422 -6.254625304618914 -4.618531016446877
95 -7.506790868177853 12.47595030330484 -8.518745651477262
118 -5.836429501996664 -12.029212522981041 -0.5704660692897727
263 -4.279516185326312 -0.5369775073714841 3.696658482248417
18 5.550162994089939 -4.452946438393831 4.209419698953867
184 -2.5057988414005194 -10.25954744054255 -6.827518367789446
310 -11.113657516507404 6.392335176118425 -6.219480304931508
217 2.2005873153625344 -5.288118063742324 9.328953395768636
411 -0.5112190353923481 -8.464336039230737 2.134089682105861
20 8.522145035169816 -9.369988795871127 -3.4394786430198954
178 7.407161003031056 -3.292698960891356 -1.3680960701215032
88 -8.15974119611408 -5.878024325309418 -5.373862099851434
324 4.340583880825945 7.688248861610361 -4.400963881258937
342 2.2722664801206474 -8.156775992556698 -12.500834789043184
350 -2.555113991019119 -5.9931803439470475 5.4240249805767915
268 -10.472933095791829 -10.677843328933225 10.43804303524351
509 -1.3760941898455856 -2.828523533653606 0.6740886614123734
325 5.514929631784634 -5.607230824043628 -2.715900327349406
76 -7.249673003237868 -1.9333290821905293 -2.3915000888388334
261 7.588476117964134 10.66979115379829 3.435539325361037
165 6.117934266934051 1.0873258432363393 -4.096003548470444
52 2.6212054742384185 -2.7426784861291655 -7.025347320667352
341 2.228484226747853 2.8186410683611647 5.483848972635965
488 -6.217458565483674 4.1317780566073425 -4.792387595970458
503 10.978974984505468 1.2321848114067593 12.221407900412391
422 7.123893427786276 -9.313530299852534 -1.0300135628444578
428 -1.383155054841273 -7.815315055878242 -2.7797036334660334
234 -6.345428784306335 8.586410931663954 11.051330265501191
457 0.17948673916451208 -0.22864351844495953 -17.015049724089625
148 6.887870291977038 -3.6248930246936006 -7.404806746313749
302 -3.3162429757111833 -4.442692469765673 4.693350926677759
250 6.095275806038827 -10.113991631293626 2.510074383655835
377 7.551106236802821 4.727431740806325 -4.670358616015077
138 -7.092156524280171 2.0433841527082324 -1.0628477320896828
226 -1.286255470586629 -3.716183870980727 -1.2188905399710126
381 -12.372847830990523 4.086855166372028 0.03176299669396653
478 -10.467922389795573 -8.375845072202017 -4.176709147035707
56 -2.2597578070615314 5.98597659170213 -2.5777552495434604
493 -1.4044448578906803 -4.540050766990912 -7.8457259425720105
91 -3.296157198590289 9.843517451744141 1.7158759738232452
201 -0.3609012119560049 2.9163798946906967 -10.708807639360955
210 5.106733599047982 1.4500576019307554 -12.084734873520047
142 1.4472351197144435 -5.4970792031332 -6.2413041074459095
475 1.7242364214320396 -6.7628077068209125 -3.228775414897203
394 0.25416113720487366 -1.5386287087669368 0.8080715730602978
146 -1.0014469515329716 -1.5674598080705748 5.496199315104238
64 6.126084891102424 -5.144172531141517 0.17879108990091064
137 0.240852473956527 2.5868936672013625 -0.2965520254777538
68 -3.2427074805512133 0.033846343838651906 -6.039670762444388
181 -5.089710359008154 -0.8388041675809633 -0.2362746216141651
224 -1.151547914959509 0.2786053372847846 6.7366107315118615
15 -3.7221560580091686 1.4337518033791279 -4.1120359185221185
282 5.840422739313296 0.7883632968349762 -3.2577765980784705
124 4.870236206042019 4.187897714835617 -9.2844216921644
216 6.327472874908004 2.5742514633475553 3.726966550843718
254 -2.57901275583048 -4.172449196024028 2.8502087956951505
161 -1.2427434614663477 -6.774551780928961 0.24143195107938983
412 -1.6819868956522777 1.3403455492857623 -0.40555230207744725
407 -1.8859154466114156 5.07706613760769 3.0136966072092326
397 0.8822515703054623 -5.95894428613342 13.159505542200668
258 -3.3768912997779332 -8.637245573482328 9.049753021083207
45 0.9675958157506378 -5.945844935174535 7.694811493275502
413 -0.0010512890557519024 2.9237007731984583 -4.551044584936819
252 0.6574191773634867 -4.198811934519564 7.694692800440241
63 6.559078078932183 -7.332617025604414 7.904980486118351
400 -11.897082708035963 3.8424981009844297 6.402572748844722
408 -5.231584263408956 5.910213892989028 13.74592793949852
215 -0.19795913420648995 6.4917535236607185 -15.513971030785935
491 -0.38437558766479263 -1.1552988761056315 -4.198679016845749
30 4.725531580303705 4.583647289984655 1.3570868097597044
330 -3.207867038876026 5.732787782330714 8.282218953673016
331 2.0454515762677805 1.8066630757615296 -2.4544858160001586
140 -4.214772104788687 6.506315961426091 -12.304783216248257
483 0.32996065759800164 -3.372171811078979 2.3350112758142645
507 4.044862619769835 7.227402385985125 2.449134442741657
242 -5.107472106671998 -2.3469051331672834 -7.9217929777319815
62 -1.9224365432318942 11.439812073500276 11.279337540516673
353 9.635020572301402 0.5105001157188704 -8.433935762233103
203 -7.014360032712168 -1.9018463710505797 7.327940072087261
335 0.7849347492542379 -17.087153169410346 -4.2139277201926815
489 6.306173337728322 10.164315824252942 7.813064690631163
82 -1.454344584305395 -3.973182757938415 -7.246150932419719
6 -2.618456229575512 -7.838803969358566 -2.950789993006978
166 -1.9576794276400726 6.136874043101389 -0.8105009280077031
448 8.843185843658965 11.304089871355664 -3.9124208242806917
141 8.756027675563912 4.68655291632193 2.390874942935709
243 -6.759295041212984 0.08432106888103869 3.1230205061534333
375 -5.020527162634396 2.659697368862088 -7.570311404433499
59 -2.701586274271821 5.75445036332939 1.4345385176738272
3 -3.0525079221332208 20.449219647206384 2.0389569659533056
326 -2.051040702196608 2.356481203187757 1.737768438765855
404 -1.1290508982433554 -3.8544109249039575 -5.5464351538596555
164 6.980707488688011 3.021722495214294 7.699556913527668
14 4.559151620472202 0.12013074171258539 -10.06264395879635
206 -7.6958489942477 4.904355417703446 -14.34663881835201
34 -7.956591537940247 -9.955088476833314 0.17836842755301624
285 4.322849573545878 -15.405949588746322 1.168164852218017
440 -1.6904481801828133 -2.0594282410727 2.089143486939425
117 -1.8482703305918136 5.4259013604161135 -2.3042465596794255
361 1.063747628406992 13.639355079993667 -3.684747468780163
245 -14.296650806025955 5.672233665601697 -8.311022869499503
273 6.175716173308352 -8.968294379781621 -3.827268877727231
378 -1.89745874986375 2.7188094976125026 7.060413394720643
255 -3.179665312057907 -10.511061222679277 5.956215961120169
434 7.871982194981743 -3.776406677656765 -6.132193449652693
75 -2.5057940563027263 -10.244711699361625 -3.107361558384122
487 -4.769774804128507 -5.5270548602524405 3.615184185885445
504 5.02259133196541 -10.856047600555568 -0.9712158862521677
505 2.7914460606248452 6.773538929572218 4.028042158250995
471 11.311179620236157 8.874345734024208 7.321940326740602
383 15.662996133081151 5.799450877982957 -3.5358127126996233
474 0.10476737669737028 7.311544466806007 10.306359715806023
197 -2.5915698045594833 -5.181752951644111 0.2877747790794144
187 -2.0283117256498535 0.2491480203541861 8.930819665915926
322 15.478155010154888 -4.673292257890086 3.033097215261474
192 -6.855586857373013 2.179010398275123 3.2102164936152744
48 2.2831176580329 -0.7314081322969722 1.244847157786002
211 0.5641553126459816 1.231753950080977 -0.986821106097675
344 -4.161606599737667 6.134406656070195 6.384767042775226
319 -6.418134271044844 1.9167916097332862 -1.9849397802411322
419 0.34859147433337984 7.5651920904687415 8.855565718438488
307 -4.028074915959883 -1.3955121313280792 -3.5100179710568318
94 2.9917431851735383 -4.646423757838466 2.0056449333915856
360 2.632153131662784 7.713511360203052 -7.606087242553897
391 8.973668275579046 2.193153431793997 -9.675560258833707
66 -3.290963330555659 12.40002792191834 -12.560300233241433
200 3.2652651462284883 0.4064124199126992 -4.89929810369829
16 1.4253513109727831 -5.111905950698195 3.2529573963635716
73 8.106755816431448 4.559477367331251 -2.855632224156874
498 -5.502135943848531 -2.8048829401711117 14.088439540102854
80 5.710626940967413 1.3885021817670609 1.6382849913815811
110 2.213123103575033 -1.1181529812407804 1.4819597048665147
300 -0.02211715620246531 3.8396728007073047 2.34180808622554
455 0.9332536200200564 4.52851728617939 11.20753596610008
420 2.0941609465221904 -4.855011447660606 -2.216793803700531
53 -0.5450807622036326 4.03606678959937 -4.430786696068398
401 0.40844747459035824 -6.989758245969712 18.178617791074576
298 -5.726411375820114 -13.300787774946471 1.5099585941459444
466 6.700289962754599 -4.254217056372329 3.219513529695647
308 -6.02052754862568 -3.2556015940293377 5.080731440337153
311 -0.19491792449050732 10.786696390090409 2.5120767700413045
228 -0.7561261359002266 3.052018020760766 11.382377149418366
430 4.522789111302339 2.7898235734934014 10.117854401174856
328 -8.271471541941226 1.6285048573496956 4.788240735331709
426 -4.0243411083971115 -1.0290871910277515 4.829603926021238
195 -10.197589126560436 -7.731105119516779 0.7976140859075589
81 -10.164884097337861 -11.115426572923521 -3.554902575988716
179 -5.799999389903277 -8.297861870778803 -4.484480153279502
264 -2.979809887093486 5.674117768382418 4.966535268379194
279 1.9194110475054156 -2.7162103244965774 4.350285371193231
367 -3.0992099214888733 2.4929570322658887 1.843709775756292
278 -1.9704989522658438 -4.638162942760793 -3.03028066308381
171 2.5828195014452735 -0.6662585212727491 0.9595067024848631
131 -1.4430999863380995 4.194582516605053 -8.309981081686319
2 4.379488335274858 -7.09064809949689 12.391379687568103
301 4.001660924357417 -16.00560863901819 10.416235483801099
339 -0.21256048994759383 5.61777723576954 11.381410453408344
431 0.541082370556005 8.595686727993948 4.2179620841655225
158 0.8405352601399164 0.3005342602424264 1.3406617503811429
213 -0.13667669211058944 6.962689811959039 -10.668948178757057
257 -1.2169289117432909 4.01704760459409 -2.047721810583233
39 -2.545529400565683 2.7715091281681845 -4.734650556312959
86 -3.632478463382783 4.515003555385106 -8.552294365503215
355 -2.9174563151475446 4.1518708509442765 -4.75379200590983
465 0.5418344440936725 -10.00745608092626 12.209036213941722
436 12.063334288559862 3.5010300577064797 5.328100669909485
189 -1.9381340754177947 -11.04045632967763 5.1324042292682055
143 -5.101903045322478 -5.7065590987359345 -2.0947419334028483
186 11.208264105703869 2.275301102207591 -0.39456588142358867
239 -3.691387125628826 5.168994479928106 0.27389504200060755
259 4.492176432131098 -9.888100614349963 -10.764163374694913
429 2.4711225534668895 -3.567433436097228 -5.034684040352292
227 2.5431654765179896 6.7255386623123625 -0.8901200120477841
390 -9.385547226986908 -11.463226795022205 0.6745903689409872
340 -8.737391202120413 -3.137479804398827 4.829208803739554
96 -7.396432608525784 0.8901456451382245 2.646548978025638
90 2.1802028358731977 -11.535665724845556 -3.8604426052081475
111 4.031093595585207 -1.0650296446361656 7.470072900711136
506 -7.139596098409163 6.852739255739968 -1.5694653784677859
303 0.16458576629709173 1.2146732687242399 4.627451186913371
386 8.15690036787615 1.9656266600335945 5.159915242654615
180 8.550955685783642 8.702707116899584 -4.202784182533515
156 -3.871720830687611 -2.5503914781664445 3.4138986456857263
198 -5.647267395635109 -5.285050960994284 -2.5682094834701057
363 -0.3661150721341715 1.3315622106158724 0.38427911430609973
54 3.7330631818430002 3.763992074570969 4.367017972322243
127 1.4433493612633694 14.16053344047706 0.7870562755316698
389 -6.2994143849975535 0.5927920614833988 1.234881954966141
132 -1.140705674491195 -2.2263018284378586 -3.7147753007465183
57 -0.5286539065145763 0.8271713152321616 -15.07085099139691
443 4.938682916749271 -1.7733096014915772 3.1611913060502173
93 -10.09229665707966 -6.786455973876026 -4.993139283217792
294 -3.703291310863925 -3.0738626368161905 1.173100474440741
476 6.370506213407277 -6.339912195912304 -4.5823053119025
269 -3.4950792002159603 0.7852778078846507 0.6694359439818023
496 0.593310241192573 -5.98247935372492 -5.1136098783631265
208 -8.288256160038843 -0.7977550816634584 4.705917833817984
456 -6.124216328793743 -2.167764934197936 5.231698785135906
173 -12.095583065941389 1.4030251551219277 -2.094615170495345
343 -0.6078708254503171 -2.3525205926421195 -2.1436299966961823
248 3.487423408818788 -6.273617643211655 -3.035795870593304
481 2.8125225029424787 -2.840398572125529 -1.6864778637337574
293 -3.888893316612952 -5.651374267157979 1.1016841130698882
232 -7.202998271354491 -3.0965522670302845 6.083126672004399
266 7.7720088637021885 -2.547805148119947 -3.6722705991042193
291 7.448574676748997 4.923822449179234 5.459734220951823
31 2.066137744583567 -2.8497746556117765 -7.944463933359797
157 15.322837004522466 4.453911431401774 -0.09738964711360963
123 2.395447022792234 8.580419819651244 -7.733533494483942
425 1.1391720668687044 -0.8482174686541294 -6.433443370183491
284 0.8531224239921533 -10.543985857676017 -0.10318701679514448
449 -0.12219112605546878 4.374051660861522 6.430059388520342
432 -13.416787937186534 -11.642604350747924 -11.56244182289179
421 -0.02469693048379674 -3.274080170701636 -6.040319917938187
44 -3.426540915821172 -0.5249774860802974 6.55779057562181
176 -3.626048749780051 -4.3417401780274005 -2.4064716376048567
147 -7.587170217479953 3.7508031359867116 -5.579093401774833
351 -4.748034602621877 2.1200835015670108 4.25093217185949
97 -2.592994874625387 -0.250695789574919 -1.574801364495474
369 4.706299346652197 -11.573378616912288 7.348817345173756
376 -3.9727937046256745 2.449881701278205 -10.44639900476025
71 6.0569298006329895 -11.69858444412796 12.200478486424279
150 -0.2555726276138643 -8.53265275174493 3.2709722949174336
287 -0.5205288446658767 -7.644344309277318 4.353449073590267
10 -4.760575728145888 5.940671176259383 -5.588267364912241
320 4.288606479616485 -6.903742329225906 7.455527962667122
473 7.383893356697347 8.281577611577463 -4.324926533137469
262 2.984288239354103 -0.95329240103233 0.46856621106180535
70 2.267253047209265 4.631650045644798 -0.585218710239299
275 -3.064041081716343 1.5220243031760403 -5.219951801499769
479 2.696356776506527 -10.026764454493849 2.4591013899729437
196 6.4667986452720525 -3.519995282492181 -7.073284253101507
122 4.678375018405728 4.022311670311422 3.7572092799353074
385 -1.2630200405515897 -6.776536855623525 7.225740457714821
414 -5.486897287288439 -2.9201379468128708 6.034638370946351
277 9.959333651565657 -1.4197101221426347 5.499249830163798
292 -5.474767060998831 -6.699285705552059 -9.288858322597607
435 2.585044898503801 11.678202482814838 -0.4242033574674388
346 9.688148596832491 -3.425982911507605 -7.222360745247172
510 -1.681896587274992 4.525294867359008 0.3655535331559482
116 1.0173663341730428 -1.7202962473942944 10.533925905406445
499 -1.73123844705185 7.919879234269281 -7.28142030477163
304 3.6214547838599067 -8.207219774238624 6.036016800437517
327 0.3993911076832268 -10.767181306144321 -0.6677539448727312
460 10.651236527051687 -0.6886177884118482 2.137024156979851
9 -3.0525739435829675 -11.737492537673822 -5.9208641574978556
230 -0.9916228894644163 5.745752644478998 4.066375301965047
368 3.4129811854739076 7.710110894389548 -5.415520001320479
470 8.620303656188472 1.2691630020853988 8.122115679679832
433 -11.983699382743893 -12.457173835062623 0.25982627435243105
128 15.854918284304997 -0.7130153228973584 10.61259288880438
270 5.229932249108612 -7.131613741378914 -10.489867662683826
380 5.712470723408903 -0.2814290521847489 -7.0677871281691225
500 -1.7178443586141097 2.904306635498373 6.006163706140772
313 8.6796044002616 11.3675586094007 12.54152420730913
379 7.616041139836738 11.30402252573705 -11.535011542031985
334 5.986808438398121 -3.2661188098779554 3.9024431230194723
371 8.821409259626105 -4.680111632803332 2.9473564578294433
472 -15.253750587398082 -1.6166864054242522 6.783409265437416
396 -3.3644125514795618 -2.9650792204934926 -12.399684113318502
46 -2.6287010885375355 -1.388053095484479 -3.0567843408008954
43 4.873410481133677 7.89226980665023 1.4189120979850387
338 2.9410500290447774 -5.207139130164215 8.321005437515021
444 -2.9250247427573752 3.64020387166889 3.1245161254983738
25 -9.877171700723139 -5.8822651216529716 -6.636588951748955
72 1.0529054874563644 -4.7616384852975555 2.102251592430369
437 -8.477718949972783 -12.12724171244134 5.996660662000878
27 0.8852909359296297 4.054985122858315 7.639372423497786
410 5.053680714559207 -1.520767581595325 5.543326720986406
28 -2.794766536806535 -6.20195350287494 -0.07899393924684793
144 11.52861499616533 4.570647932859416 2.4826233753051348
170 -15.801655791903165 11.309324615005105 -5.638545814903502
458 -1.7522465733563384 -0.4889753696623232 -4.902122679888276
207 7.202950103721889 9.641017108969876 -11.602945099290846
229 2.824735451167595 -10.023789973056209 8.999785114113322
461 -3.9955327962536016 1.7136595756858233 -1.8649709419558178
445 -1.388110990123052 0.25197306467300623 5.33646803233121
403 -1.5255987314350437 13.554348608030896 -3.588049688599367
512 4.810194635335249 5.496356273399726 0.7446121754298074
463 1.0216757555276723 3.535134791168279 -2.5591099699956703
172 -4.285490556998187 6.591301202469528 -10.147906483459217
221 -8.55307746189157 -10.397288858280973 5.9534999005604075
69 5.905609819376707 -12.509701185929561 4.649100798094097
260 1.6691700747236478 -1.838799310682771 -13.566330155935352
104 -2.2863410995360574 -2.375638827843199 -0.5936182028002763
290 -0.654764191873306 4.8101242873000345 3.050224753989774
511 -5.285514247839041 -1.6272757552898969 0.31436688343440683
98 0.05944481247696744 -2.3253889093271187 1.1707224192906442
199 4.0238588953721575 -3.230355358530578 -14.969600557794076
204 -8.55434227085248 10.214166987744997 -4.720656818530345
251 8.111632447691145 7.281614415014312 2.1609403933579556
120 -0.6553813828205718 6.396347516317771 3.1346127247202187
145 11.491796438966215 4.98581032186526 -2.1065003534680335
106 4.334300423800459 5.3801120281010535 -4.3437435306556536
406 -0.789477108964245 -1.9993815880270513 -7.764883926925254
191 0.8556660529880986 -12.351275518564988 -6.519674254504837
297 -4.978259499487433 2.3728976820346395 -2.0266686675624483
388 0.9655061703464566 0.9074125331049071 4.913463313655648
115 10.697477695492667 -6.732839602006858 -8.037910874775203
423 -7.542963707570843 -16.001524270994565 6.133046129464504
65 10.194058234749303 9.793873238432301 -1.7621171024078188
218 1.6251490205470587 -2.977497471363761 1.0335991670136275
295 1.6036437623840498 1.5032009450396573 -4.20422459620342
246 6.788376465009088 -8.02944865571288 1.2915752264167442
439 0.1754317311741313 -0.4816782480706931 10.543904502844262
26 8.557562091124845 -0.7419358158376814 2.344607278156322
214 0.5613341826420598 14.18531437447359 -4.438157809756626
323 9.619392442161173 -5.0240107064254405 -4.017941060249916
153 -13.694201453654776 15.146819347722133 -2.242595017578875
462 3.1854612657088253 -8.190382822653996 -10.9165847610974
29 1.7954712409613331 8.816810722860426 -10.376316764811158
78 -5.99142423647399 0.0801932084563116 -6.065153680961795
77 0.9956670955278222 6.906380695143156 -12.496460974520678
314 -7.678101440677613 0.6153847876380004 3.722780086464779
485 14.170893970173529 -8.55715018422783 -3.343332243505788
427 -1.2820297186424903 -3.645393056190946 -8.413348885737268
55 -5.562622956586173 -1.0163827178015261 -1.7157524029161877
492 -1.2594177414988312 0.8890411596772757 -5.255843863753249
358 -3.382072846559578 4.391506771187854 11.262616186655444
8 3.866883397568828 4.149721596819928 -1.6576651879335542
497 -9.85987891091152 -8.53320798151309 1.129816264863032
450 -6.826358189241574 -2.218009447243436 2.488135189665547
37 6.903196169517787 1.0240471945116816 7.780066801625533
501 8.345606833748421 5.625371770101754 16.353940183438308
283 9.102012624752254 4.649559464251144 -5.5492061704780955
235 -1.462305869829325 0.5827565419640387 -2.6259187115159337
60 -8.53370179221537 1.113930854601363 -0.16090633373499882
17 -1.197362336953232 1.9620059021532037 6.068462997795924
453 -1.1605959863995168 -5.075849448181488 -0.2282055240838271
105 1.7444961906795418 -0.15458662270351053 -5.812036977116741
36 -2.3425920702634153 -3.6586560992039185 9.93809845651902
183 0.5881674357949385 -0.5470216676029411 4.281800002679516
101 7.382551648344092 5.747452290931641 4.1283121181258045
362 0.17475063265081411 -2.7005190103267753 11.123898729650879
442 -7.971284350677984 18.280906001980764 4.172868846716743
84 -9.376780017844325 6.902431484697677 1.5271711077753507
177 7.970752924135267 1.0781211639282735 4.603003503211977
333 -0.3629570953121214 0.5679000168233319 1.4941016388207138
502 5.287397851467387 -6.406787728042002 5.953323093280533
469 0.4704046965167348 -1.5225153763276023 0.6626166098564232
345 1.642033230743974 -18.660478418183775 -4.056605774031603
99 4.280228035091522 1.5498875274701762 9.801410288223614
222 -4.167313722668872 -3.0637909148880813 8.310733190838265
87 5.053087753087514 -2.798786752793941 3.164597339822435
276 -0.4965931079365815 0.06450077558492504 4.715633231463326
477 7.720033298803288 -0.1590545816830384 4.681584988414159
317 7.704888205754449 1.247560664813078 -0.6462928606535934
238 11.617202123908918 8.00806386762271 -3.4490575850639202
67 -0.08662023065074977 9.77012789417502 -1.3069138951228
7 -5.583066858926932 1.659913401171966 7.696304608025033
480 -10.87890679975179 -3.413199629952395 -6.768546432785716
38 -0.47286092430775467 -1.6516078851877432 -11.167377309682108
486 -9.499037198535776 9.816589765036388 4.331641882893688
347 3.618010014207009 4.555728624475232 -10.143651901010251
356 4.586208893672849 -7.390139662376028 -2.613170137583587
415 1.7841662632781434 11.290349438247695 -1.2828930814764463
134 -6.510274416747649 -11.353861523104381 -3.6987479975069832
312 1.221230212990545 -8.951240019237583 -9.8077134729414
19 -3.72045533424055 8.317353114446767 -7.762952571019296
446 -6.516815426682158 -1.7773797684377608 -1.8947632599864601
272 0.9410588468394708 -6.535779150216884 -6.73680991644718
193 0.6757637143604343 -7.542718553364552 2.786503688243645
405 -12.662428562972408 0.01959711813497898 9.996402359974613
162 10.222764650879451 -5.230009667979907 -12.196574446037927
149 -6.596429520448741 1.157290078009281 -0.783183248544986
424 4.170091668295507 -1.2989415159599236 0.6421743044473237
114 -3.3525851955368706 -9.819283380062833 4.830111829603471
398 2.826856631721271 1.1495818024312585 14.537597287668033
329 2.4305608908228975 -3.818314935307584 13.671813111274588
233 3.662426285663159 4.203152045846025 -12.826163614012115
205 3.5530773547844006 1.3430731824308404 -3.8223528877441844
136 -2.6902795429725215 -0.4643388802494135 2.8999254937986962
306 7.990917780728232 -1.302723455058553 2.3324555791132875
281 5.274180494991171 0.6784955483210157 1.3873760074647237
160 -2.52335863620298 -0.5619011959499423 -5.028609585360317
332 4.60613064862638 1.3444245050633796 1.3624135722391841
354 3.186734847759238 -6.81702168030537 8.355545420937325
409 6.995953296040628 4.295589705049407 3.010940560009933
190 3.0435842623329337 -3.941419826691 -5.161525221884978
249 8.497356495004304 -1.4923848474953774 2.288433358073735
451 1.1684027239433976 -7.964392264164099 -6.778206522178983
32 5.266355215294979 6.4091026962872775 -3.4022104794194803
357 -4.492420848393033 0.991026401186739 -4.12253613967006
175 4.668007260495356 -0.010212743097620103 -6.891178264331233
51 3.963989422168059 -8.749688182657174 -0.6885622850522357
495 -4.776742126442898 2.6798575329788275 -4.3850177288425645
286 -5.518845871613453 2.7252909900191655 2.432880583002946
321 4.707461477775969 -0.6414892711448547 6.02267219842197
33 4.978229310152832 0.42607391558491736 -1.8876708694968283
265 6.96976167789275 -2.0184087221609466 7.496698800418143
372 -0.91782426457567 0.3108485529664056 4.643067533925514
188 5.853892731707533 7.730007328207532 2.3607466201436824
23 -1.7334430638849536 1.6266492467493399 -1.9731357224908912
387 -0.5819640316412004 1.8564004251586572 5.680989918153787
212 -4.245607075231823 4.67815710764181 1.1894336082567056
125 0.7779172503997684 -3.5765187278704627 -3.1941086167378434
167 -13.143104596069046 -9.642865227817385 6.502955687984974
49 -11.34420996270345 1.3142306418295149 -0.3556458091761359
85 -3.074012256312645 2.958525983070301 3.6458392912062845
438 -3.353801342455548 0.8709098462417404 -17.20371314197276
482 1.618817637761311 -0.6574578287339461 3.710394724527228
393 5.281838361390503 -6.904832801995152 7.007493685401382
129 -5.286936205308289 3.462870255156671 -1.0041276381226103
399 6.453367781019905 -2.375751743107211 1.9487011503014007
318 7.412437128047152 -1.0308756305150808 4.9784296724006225
47 1.9339547374762087 6.406033910166651 -5.577191518428956
139 6.2287008607442695 11.869981295124278 1.941223662567755
89 3.828775178829432 12.133743230745363 -1.036576269458563
135 -1.7255852498818967 4.806010288712497 -1.706291240810882
92 -13.721562862132854 6.693285713675859 -4.840970580493322
169 0.5091376263922887 5.78203032922424 0.8557525465413711
247 5.043355849150057 5.828689466923548 -4.275934102755639
395 14.4434380947416 0.08959887469150188 3.2906346725181277
468 7.422683669278975 -0.23954101371170033 -1.7048942898915689
402 -6.7839526676587925 10.904347024197927 -1.9533319531046733
382 3.1354073470140476 2.406437931079862 -5.013597056190039
112 -5.2584933920763195 1.4719560823745377 -7.628405601411695
418 -5.97522220026825 -7.925942811970149 -5.97801129226183
267 -10.660352449896248 7.3429011267593065 -7.480548664473274
365 11.446857339137894 9.204012635343055 1.0041541530315747
508 -2.032606494643991 -3.3850444875222303 -9.343680552977757
225 3.0818370333263996 6.734578285095844 5.143889996852976
274 -9.652133161636977 -5.419639246662822 5.813354812341608
459 -2.791829759496251 5.967033280398016 -4.6464665697288
154 -9.227414524939517 -6.037416070846239 4.774025893440168
1 3.5042614226122697 -1.4495641865402016 7.406539441846322
103 -0.9621057571097444 7.666486360545857 -0.6105385815611798
126 -0.05861826151164676 -7.566977649656775 2.603358627867446
366 5.341964790292115 16.699174666447835 -0.8045805482966965
240 0.4456095233162899 1.830376630028434 1.088702554339564
22 -5.72381997399729 9.387279749459669 -12.468188922721714
4 -4.071462614011255 6.681310669144604 -0.675490721078009
174 0.9815639139084478 -4.507417163352123 -4.467754782098317
107 13.554174012281356 7.655389564457702 9.05292733897588
348 3.094196579932654 -4.088280365063405 4.291950014272611
182 0.7853791011043995 -7.529069833914932 4.995113503104132
108 -4.880367120583645 -3.5603732703649897 -3.2235712625283233
12 -7.24448925346432 5.626908136073406 -2.6573727217967584
119 -12.66796426155248 5.844007735620555 -2.646169183313337
452 -1.683253296070587 -1.8664377158251355 6.040396582431242
417 -1.8679913654390778 3.4186870232609214 -2.5362621485410033
336 3.390572007937467 -1.527553939313577 2.2205748103679053
159 6.882317434715422 13.64952196399699 0.11314710140154448
