LAMMPS data file via write_data, version 22 Jul 2025, timestep = 1650001, units = metal

512 atoms
1 atom types

-0.02580523957744063 21.80061471957677 xlo xhi
-0.02580523957744063 21.80061471957677 ylo yhi
-0.02580523957744063 21.80061471957677 zlo zhi

Masses

1 28.08499999277529

Atoms # atomic

371 1 1.4970155560823635 2.847488523248538 1.9117650413997587 0 1 4
3 1 2.8845239813721375 1.0192662913113535 2.458621951868063 -2 2 1
40 1 5.143261024349776 2.450853763470222 2.762778371138883 6 -5 -1
240 1 7.447949611162399 1.3819282667112824 0.9618798806092987 2 -1 1
250 1 10.00288970837213 0.829630512882958 2.987772646222556 -3 2 4
170 1 11.002168240415788 1.9622986672373535 0.36488626270258484 -1 -2 3
202 1 15.14967535776062 1.2055879028578456 1.7692074124859056 -2 -1 -5
25 1 13.62017044270136 2.408652980859187 3.2971476189410134 -1 0 2
293 1 15.989484849132156 2.0985064167962952 21.63843316356916 -1 -1 0
48 1 19.002929135496693 21.32746357575077 2.5349146873449917 -3 -1 3
325 1 19.87751766752247 1.8417069114388713 0.9760549862302237 1 -2 0
85 1 5.197755658727852 4.208400691314439 0.956169748804505 2 1 1
300 1 9.15440130481564 4.874362886285597 0.9285655538238714 0 2 0
457 1 10.267863422452464 3.1758148082249913 2.5119459805858857 4 1 1
307 1 12.978377160909945 3.225405009960652 1.004577177391926 -5 1 5
357 1 17.97378482862785 3.3324963396117813 0.3128500388548339 0 5 -2
83 1 17.79206951555819 5.875793147398372 0.03260372146991897 0 0 -1
465 1 19.135431990844925 3.482642689468182 2.967510640366877 2 0 -2
262 1 2.381480245519961 6.821387560974284 1.6835210163377208 2 -4 2
269 1 2.212502319861478 9.124073079849984 2.2545154002164707 -2 -5 0
76 1 4.699996631478585 6.509737265402391 1.0519169557552086 0 -2 4
417 1 5.937116075294654 7.1839731753878375 3.1856188598976076 0 1 3
19 1 7.519106622931358 9.161582088180628 2.729252356217649 -1 -4 2
159 1 8.996463412515048 9.499595024690741 0.9455562361155699 -1 0 0
62 1 8.351212596778906 6.373128476636866 2.685814711030389 1 -3 1
475 1 10.351404929086014 7.63678728195159 1.7658488025926526 -2 -4 -1
439 1 12.311271992643528 5.290008039712205 1.9007954820889255 4 3 2
22 1 14.895318197518405 6.579348775198146 2.1099859406723995 -1 0 2
94 1 18.383155135724753 5.888010349346566 2.3559616761442057 1 1 0
343 1 21.634946627676605 6.741876309992281 1.316773614099022 -1 1 1
486 1 18.527295662985562 8.527315770892105 1.6563901769994176 -2 2 1
75 1 20.90097637180916 9.180889708981201 1.3373887518925152 0 -2 -3
482 1 2.354434319108193 10.311065467338116 0.17037216139535236 -1 1 3
121 1 5.46530145841262 12.732712926631065 2.787941512381791 1 5 1
443 1 4.401530996125059 9.195669078688448 3.2951633538508456 2 0 3
120 1 5.712059463288132 10.729324376515113 1.9680375415139202 -5 0 3
290 1 7.601607495236149 11.70761319390637 21.567499349919633 1 -3 -2
409 1 10.274094229023358 11.636220999011687 0.4808153403307382 0 0 0
253 1 11.801022030087175 8.933091042380912 21.63559261458823 1 1 0
492 1 15.567456582920343 10.295503421399737 2.7370851845983437 -3 4 4
430 1 15.095515920062246 10.800591312472818 0.41260058389910165 -2 0 0
114 1 17.860880616618402 10.011963009617997 3.3641134318986152 -4 1 -1
353 1 21.058095111791765 12.866056090475762 2.1206780328342343 0 1 0
478 1 1.3417839464492411 13.393248689262657 2.4343153695026323 -1 0 -1
512 1 2.303072941649773 12.773819832041353 0.24057432528432743 2 -2 -3
435 1 4.569980694799038 13.685917089473131 0.9274922769759302 -1 -1 1
217 1 8.03642535967404 15.20399810778819 1.6824519918056888 3 -2 3
50 1 6.78111110436026 14.155999076881349 -0.01985428605820516 -2 -1 3
200 1 10.445045055492834 14.624467587678648 1.6478625182932818 -2 -3 -4
182 1 13.009729670541004 12.931543151486997 1.3873262244514335 -2 3 0
427 1 12.983544840876997 10.974883893602048 21.59748880001925 2 0 0
79 1 18.26817984581445 12.07993105226275 1.9912900925931192 -3 0 -2
369 1 15.391815077650907 13.764303715635515 1.835923270849908 1 1 1
278 1 16.401167270514602 12.66073646812249 0.012209270010729202 0 0 -1
302 1 20.71704548632324 15.74552412753047 2.185781281668078 0 4 -1
119 1 1.5853117209243202 15.827449729682371 2.190726518600314 -1 -1 -2
127 1 2.5165960430471177 17.425124091898176 0.3659008436693829 -3 0 1
70 1 4.002362935531755 15.722727658263992 1.7710306453292772 0 4 -1
20 1 5.731046787682784 17.462567660829837 1.82830517890423 -2 0 0
374 1 8.780986870535099 17.788655178945806 0.8276764359489537 1 -1 1
444 1 10.618917358414379 16.360281476732954 21.779011365496117 1 -3 -1
326 1 12.75740638511303 17.09287878090439 0.8940540367174525 1 0 3
488 1 11.5533133030185 18.710782363981536 3.368281381869661 -1 -1 -3
316 1 15.210594895268787 16.132273719520644 2.0930002764888296 2 -1 2
27 1 15.91591525411162 17.738399826359146 0.4915833895090055 -2 -1 0
420 1 20.308068314163112 16.920476604740834 0.24303784495780312 1 1 0
461 1 1.5030244714494783 19.689093320800424 0.5928758426694 -2 -4 1
113 1 0.8405058840568866 19.367918203886127 3.018328523717421 -3 -1 3
111 1 3.5945762050368173 21.274542828014837 0.7292607566848579 -5 1 2
373 1 4.908667565991772 19.87308937535344 2.12097492008026 0 1 -6
162 1 9.006461149728443 21.25400827818218 1.272139052585409 1 3 2
224 1 10.834837137347296 19.407102477803644 0.7766263741412935 -1 -4 1
377 1 12.762540824197236 20.926475347664812 2.3104571006447436 -4 -1 1
74 1 14.709474746933976 21.05147014523222 0.38116916486519525 -2 -1 -1
329 1 14.06246056196218 18.49408182881116 21.291628370153934 -1 -2 0
341 1 16.70159974892396 19.684802560555166 2.0958855258018896 -1 2 -6
273 1 20.923899535406253 19.26325375651642 0.5030482292770571 4 1 1
151 1 19.458176829759893 21.108815985811304 0.19611178606081853 2 -1 -1
17 1 1.658396290148413 2.1045825731370575 5.509086337891552 -6 4 1
45 1 1.878218253643882 0.019136611772086698 4.5315575912488475 -1 -1 0
295 1 5.727936170578762 0.1821593870766344 3.728138677807703 0 0 2
193 1 4.975267746216779 21.62862526649269 5.896145920122487 -2 0 -3
405 1 7.981474129662287 1.0129095610873882 4.310173506982424 0 3 2
226 1 8.882886351154884 2.126202086896756 6.227627971065896 -3 2 0
324 1 11.315722793741726 2.9836576671742767 5.415336908232586 3 -1 0
387 1 12.110829711568583 0.6743577332286104 4.00257051542266 -1 -3 2
433 1 17.48830218917866 2.679768083829571 4.628331206631725 -3 0 1
247 1 17.07297724316193 0.774580263555182 3.239875650444313 1 -2 1
69 1 21.232086135834077 1.504788846569534 3.130397204502051 -1 0 -1
388 1 0.6928926910561874 3.9697628197395454 3.941264574176465 -3 1 2
282 1 2.2674307152946476 5.682539447343061 3.7855793354565725 -3 2 -1
493 1 4.155790739432672 4.281966879035787 4.058886014468539 0 -2 -2
426 1 7.82581528888169 3.1799284321844823 3.221529471596942 4 -1 -1
242 1 5.7761777414175635 5.916830009974263 5.196255749216624 3 1 1
349 1 11.510802066433628 5.042778263304674 4.218296630309642 1 1 2
123 1 15.204324821441025 3.818560210736179 4.784750057185082 -1 1 0
84 1 13.333234352824675 5.412170260269493 5.5671002366638165 -2 -3 -4
352 1 16.33454942506748 5.741354700317868 3.653404034810004 -1 2 3
95 1 20.4839761417038 3.2000284462462028 5.279855848553108 -1 0 -1
238 1 20.743690952714246 5.833692537246893 3.422536323104883 2 -1 1
511 1 0.47330084140878653 8.822744639671027 6.102822188683973 0 2 0
168 1 1.367269188882151 6.413706593024759 5.997977997901215 1 -2 -2
179 1 9.782276790043491 6.5127491060198786 4.663774204507771 3 1 -2
283 1 8.1990734342587 10.145783543789038 4.621776920531311 -2 0 2
57 1 10.16556203316882 8.919041330861907 5.268289261431272 -3 -2 0
438 1 11.468676564707119 9.110950143439151 3.2598841472012623 0 -4 1
308 1 13.867770404369368 8.45475280093622 3.3638457039802185 -4 -1 2
506 1 14.434023590300672 7.58561625956357 5.422253137416893 -2 3 -1
473 1 16.77859827592686 7.222803164111852 5.666571174664888 0 3 2
437 1 20.660144257952346 8.289463070308004 4.10704047766554 -2 2 2
73 1 1.199032873983639 10.126624005254351 4.120345941240343 2 0 -2
9 1 4.554139309075733 10.087826726046426 5.317989726645675 0 -4 -4
26 1 6.727249377715581 10.530572486388177 6.389790001251038 -1 -4 -5
436 1 9.150974088575332 12.377942363268085 4.3930946593877005 1 4 -1
91 1 11.089690469776869 11.737707394660088 2.8425568572600093 3 1 0
177 1 18.344581401204064 8.833981901483108 5.408863305792205 3 2 1
485 1 15.79438552160721 12.294238316000785 5.760499303094839 2 -1 0
378 1 20.765072417492014 10.857814031838789 3.2270356427151063 4 -4 5
505 1 19.48690073959904 12.139715834252641 4.901548493179027 1 2 1
414 1 1.9654178771137003 12.31619722338285 4.28443981205794 1 2 -1
239 1 3.658139829314291 14.983446773778802 4.081083777689339 1 0 3
317 1 4.29909583203975 12.509141759225729 4.737104765819215 -2 0 2
2 1 7.145075491456275 15.36264082188566 5.2026933929544565 0 -1 1
332 1 7.452932130632472 13.796785173146812 3.453594246591358 0 1 3
234 1 11.530276908030203 15.223987781543952 3.8407744637263166 1 3 -2
385 1 12.074610295631675 12.969689547627292 4.586646942636528 0 1 0
23 1 14.396871791069048 12.413948515444394 3.8011444924807907 1 -2 -2
495 1 17.13089385465902 13.645946076942572 3.6517046659337797 -2 -3 -1
7 1 19.551431074085205 14.502488808336823 5.707168131017558 -2 3 0
407 1 1.6663218656447996 17.116005902451633 4.2758543705074 3 0 -4
139 1 21.23154280187573 16.717049873634863 5.23261469300797 0 0 -1
213 1 5.243905803267266 16.830319728871977 4.5841785573467035 1 0 2
331 1 7.739783042474489 17.367664559499246 3.3904552372871235 1 -2 2
97 1 9.697777980164362 18.26955883412131 4.634278036257974 0 -1 -2
392 1 10.93300017106832 16.67804718172632 5.831341322668346 0 0 1
464 1 13.233785088699445 16.902127368763313 3.440206006099071 3 1 4
109 1 14.185545629838106 17.590434874652914 5.594662744775732 -1 -1 2
14 1 17.04440526082811 16.88203550465735 3.6848388513695594 -5 -2 -3
80 1 18.86367274405225 15.320208956811124 3.6886367000417146 1 -2 -2
186 1 3.5031400443054808 18.721464247995993 4.007182543272775 2 -1 -1
37 1 3.0246623042088188 20.120699012799395 5.733245330070035 -2 -3 1
153 1 7.340353224549171 19.98994156001718 2.8375126695504775 0 -7 0
271 1 8.561308156212162 20.25459097240434 5.418948965484474 0 0 -1
106 1 12.146630307596864 0.2443218948364634 6.124619309797812 0 0 5
328 1 9.935456168230944 21.74801558876578 6.801550733381053 -2 -3 0
61 1 14.445481851448722 19.754821276555383 3.5069312086335604 5 0 5
275 1 14.209556937280796 20.574931790578116 5.733121529787514 4 5 -1
144 1 18.367818338489794 18.824996499853818 3.7525231799775614 2 -2 -2
452 1 16.36777820717799 21.558534855467222 5.460552793437043 1 -1 1
241 1 17.77286356139522 19.87326616405962 5.6180788259030505 -4 3 0
126 1 20.587087684128157 18.279867096654247 3.002315437884837 2 2 2
367 1 21.1281204248756 21.065306959407245 4.024314312870301 -1 0 -1
11 1 20.035464165715325 20.660355853311003 5.933214564316103 -4 1 2
55 1 0.657270001497872 2.0185553662165847 7.551779248627833 3 -2 -1
52 1 1.8006775077931922 0.9934562922784432 9.072018211523178 1 1 2
504 1 5.183644019409146 1.7596635144087054 7.170217541920839 5 0 -1
318 1 4.072008779303424 1.7521024231007274 9.268891746646267 0 -1 -1
222 1 7.143417346886815 3.035685058892173 7.459436042720421 0 -3 -1
397 1 12.69758256839467 2.2606163313416645 7.442859241774439 1 1 5
245 1 14.902592667968563 3.206244856202493 7.120387112219749 1 4 2
86 1 16.369978985393626 1.273120481295048 7.380628065303033 -4 0 -1
442 1 18.57878256244537 2.663161072576241 7.141399797147956 5 2 1
58 1 20.3625342881229 0.7922923759266456 7.330858663669653 1 2 3
47 1 0.3918040155088421 4.265656847799221 8.38841178558921 1 -2 -1
365 1 2.7324534988159637 4.904869436696701 7.813082499604456 6 0 -3
116 1 3.4898692527285227 3.1733335690901154 6.195795699828113 -2 0 2
36 1 7.7166045909767496 4.643756629333292 5.213436963856817 0 0 -3
211 1 8.936190340228281 5.6601607184921985 7.187634622696316 -5 -4 -1
315 1 10.49256947195765 4.2094842706099875 8.097514881544678 2 0 -1
501 1 12.518206268706386 5.156942452421732 7.763233350620133 1 0 -2
313 1 13.471301486893498 6.511998460538589 9.53742708029316 1 3 3
484 1 16.19056834806777 4.507110487285983 8.71704666174311 -1 0 -2
102 1 20.89811753514614 5.198292676216439 6.449228256229673 2 2 -1
340 1 20.08665145047345 5.330447728315469 9.534816772674892 -1 4 -6
143 1 3.047621036324961 7.276995789961699 7.979138052446068 2 -1 -1
395 1 5.349648793991854 6.986103851186203 7.2764218857891105 -1 1 3
258 1 6.910658031076136 6.057579168572752 8.59239373406407 1 1 1
34 1 9.955094316637593 7.771158285431638 8.365077776385636 2 -1 -1
43 1 11.270766116137528 9.41549038261456 7.285188888288877 -1 -3 -1
260 1 15.186021865733093 7.912851706970956 8.630082561444398 0 1 0
197 1 13.526666991880385 8.943701755736882 7.045526408952941 -4 1 2
289 1 16.851702677877384 6.4589391511603536 7.862423599063091 0 3 -1
355 1 20.247301568215228 7.4062146135877 7.041611869505387 -3 -3 -2
176 1 18.746042186772975 7.864724145043013 8.698773198045238 -1 -2 -2
124 1 2.729241338074668 9.458657642796295 6.885361151436851 2 0 0
404 1 2.367003619561029 11.235364920708035 8.49082409274215 1 1 3
463 1 5.762607364220499 9.007266458986885 7.984397104845396 2 -1 -2
187 1 7.459042636628675 12.343273721904621 7.389460177729018 3 0 1
383 1 11.145252398182155 11.163734513075646 8.383294650520018 0 2 0
266 1 13.746364323843745 11.406864326288634 6.778952773135647 -1 1 -2
441 1 17.799002434717565 10.902528979507327 6.461489213294915 2 -3 -2
244 1 18.220198493033294 10.166151724055048 8.681116737119625 -6 -1 1
330 1 21.15010142229809 11.259535060198097 6.460978245978582 -1 2 2
292 1 20.143105676970034 11.507061492421307 8.741059343575568 -2 2 -1
470 1 0.2890480110686848 14.847824877668819 6.623774842253795 -1 3 -2
508 1 1.2189351726559041 12.86318569987303 6.453956888580789 2 4 1
68 1 21.67311345306537 15.253615347213087 8.8861658275018 2 0 1
78 1 5.676501117593985 13.612878062746692 6.367324311748342 2 -1 1
82 1 3.496080462056633 13.814195404252297 7.661803565948122 -2 -3 -1
4 1 9.068308846047373 15.875694575754029 6.671201212595367 1 -1 0
35 1 9.28097927485969 13.363539504368001 6.439405874458939 0 -1 -3
490 1 11.662137736892872 12.984371569573788 7.029529969162189 2 -1 1
209 1 12.515169579039283 14.548237153740864 8.511240905823666 -1 0 1
6 1 14.874258361788666 14.183131900009867 8.93774417502797 2 1 -2
252 1 16.221335128023753 14.580842896906066 6.905689745963691 -4 -1 -3
122 1 18.330940913922465 14.807842390276543 7.834075313415968 0 3 1
448 1 2.727494861218936 15.804292645150117 6.451513882026353 -1 0 4
413 1 3.1757093213906984 17.591632646009856 8.047582514556835 1 0 3
16 1 5.189280289146717 18.252250836512083 6.751539299214383 -5 1 0
88 1 6.475610207669051 16.254426859273625 8.117984201083932 -3 0 -2
399 1 12.660267948015893 16.74395173304966 7.4960112237395204 2 2 -1
281 1 10.694601675381588 18.835508490671494 9.770358443295825 2 -1 1
358 1 16.352636699638015 16.77387108464559 5.997724732888116 -3 0 -2
364 1 18.238535989283672 16.99580367558039 8.511128629570825 -1 4 0
356 1 17.049360721095898 18.66933319522212 7.450617377967884 -3 2 -1
169 1 20.556237273858134 17.44283281924539 8.830288472667448 0 0 0
445 1 1.6013841468605694 19.22432258372272 7.585138579006983 2 -1 0
107 1 6.444146144783613 20.14536234337254 6.598751542912627 -2 -1 1
251 1 7.267889823209085 20.752948570086957 8.871510750873945 0 -2 1
157 1 9.71045318304603 21.085684181512423 9.062075545727671 1 2 2
336 1 14.585711833793356 19.393001540783565 7.9289737088439765 2 0 1
254 1 12.872467206349006 18.223708184635917 9.210319652355723 -3 1 1
31 1 21.2318022684081 18.444932854421825 6.83190389844586 0 -2 8
291 1 0.5872301358562677 1.913660952915157 10.958738770399988 3 -4 1
285 1 3.9665068488659254 2.527103658026822 11.888820115796912 3 -2 0
446 1 6.127386336462639 0.8110414555376855 10.147382511145702 2 2 -1
128 1 7.440033823437243 2.811908026172159 9.817909765120259 0 0 -1
141 1 5.915574946902245 0.6792014980257685 12.499033704113343 -1 -1 0
167 1 10.616112792928126 0.8480137199962037 10.816750155805694 3 1 1
294 1 9.857438793362151 2.96448102613774 10.037565214746415 -3 -1 0
230 1 10.13198590696253 0.309210064789314 12.944354175104436 -1 2 -2
54 1 12.829244772433418 1.3901733751975973 9.83982391123987 2 0 -3
274 1 13.542076964428386 3.1587804525886223 11.464977837372635 0 -1 2
440 1 16.754449537214636 1.376549716942054 11.597363045227288 -2 0 -1
335 1 18.623146432027045 2.7468357923163134 11.464927892870156 -2 1 2
472 1 20.282241696813912 1.1257923953229676 11.173275415437107 0 2 1
310 1 2.5861850934233175 5.2253178821011135 11.393977010347562 0 3 -1
412 1 4.083947781401327 4.239516580864097 9.857250163367006 -1 4 1
380 1 6.286907539300022 4.899507138257903 10.557681329943682 2 1 0
510 1 7.963609119008677 3.8800973444190223 12.539666663001867 -2 -2 2
135 1 10.191309774269397 5.092586943088911 11.630858033616457 -1 -1 0
104 1 14.960853066871886 4.937578652640552 10.590388764953593 -5 3 -2
204 1 18.513865208622843 3.6760838922553734 9.370308429010436 -1 2 -1
428 1 0.34094219081535987 4.297085597935006 11.191797929451065 -1 -2 3
93 1 2.49710745483825 7.5107919756536585 10.316441119171326 -1 2 1
337 1 0.5259591428707311 8.667866329882663 11.08035340924129 3 -2 -1
471 1 4.262959365177184 8.716948455285912 11.947298224030375 0 -2 0
279 1 5.643718364379435 6.6560145593189635 12.092666520747313 1 1 -4
206 1 7.919675781875489 8.648783115242281 9.211698071114354 4 -3 4
415 1 7.903615715011049 8.516115056334769 11.604891621055506 3 3 -2
339 1 9.338578599589546 6.968819016629503 12.86423092559854 2 1 0
96 1 11.121083824272139 6.668567136663806 10.1540743622876 -4 -3 1
212 1 11.748663180901975 8.850233552375176 11.485138045262081 1 -1 -1
77 1 16.208669768521187 8.439223583014577 10.621541346807017 0 -1 -3
411 1 18.299995926835102 8.42564905384311 11.746044583655602 2 -2 -2
87 1 20.26221563146721 7.375390840834578 10.911870426448889 -1 3 0
160 1 0.03473179334310217 10.894326788371767 10.020291444962561 0 2 1
142 1 21.71600306080732 12.260927786346057 12.180467627404955 -2 -3 -3
311 1 4.160134762941849 9.847123970870975 9.533767145260928 0 3 3
390 1 4.674710882587388 12.256368567344827 10.330007561226937 1 -1 -1
304 1 8.923026603773582 11.1909557128064 9.48160316361547 4 -3 2
100 1 7.797212066941318 13.293632468717222 10.566910720462976 1 0 1
178 1 9.860141492767665 10.332987939824235 11.53572995072762 2 0 -1
228 1 14.343105373201984 9.609370983774303 11.870535908284419 2 -2 -5
53 1 12.769189403136888 11.152577307609898 10.42130602730919 -3 -1 3
257 1 14.82623931612276 11.717112435234874 9.1921370659588 -1 -1 0
145 1 16.791068169222164 10.984137844696777 10.412010170159002 -1 0 -3
164 1 17.56264400849024 12.142780181570538 12.406817101482362 -4 -2 -3
129 1 2.195152009042893 12.528079828423369 10.826048718211558 -4 3 0
480 1 2.4348331606975746 14.464121709901011 9.636573986571436 4 0 -1
410 1 4.4316036947460855 15.386233119913836 10.636659843809657 0 2 2
483 1 5.908925710619956 13.965376791328245 9.162724287272216 0 0 -2
419 1 9.166814258636853 15.628994650924476 10.659881534780832 -6 2 0
233 1 12.121612518035125 12.977178931565525 12.038028701905866 1 -1 -3
155 1 11.39351716611515 14.64796178251537 10.600849034119625 -3 -1 1
424 1 15.526889861696125 15.517425873451447 11.123652760184946 1 -4 3
509 1 19.91406237928454 13.786155062459299 9.355376530074313 2 -1 -2
263 1 19.644183115634373 13.865275413462914 11.711216905395622 3 -3 -3
507 1 0.5086858540253261 17.108929124352557 10.93519216884093 5 0 -1
112 1 2.528808764048341 18.31808633321761 10.686063580556759 -2 2 -3
60 1 5.067123690701301 17.842003764859868 9.698813809134675 5 3 1
223 1 8.812152077736792 17.241180087803915 8.95066003070034 2 -1 1
237 1 7.283224791965083 18.716728664891374 10.169986593059615 3 1 3
425 1 12.012621867306407 16.09369492171836 12.658833536532933 -1 0 -2
219 1 10.857975226882408 18.254376365792393 11.961247822448675 -1 4 -1
314 1 13.850580952943615 17.356271775057913 11.262096589621892 2 1 4
198 1 17.409649481564266 16.792248936596266 10.79789002701822 -1 2 -1
491 1 1.458085932534097 20.444011821469168 9.689687220117689 -2 -3 0
363 1 14.144105761150222 21.106487483109074 9.871644580931834 1 0 1
434 1 16.300909367294416 0.3953171226980083 9.59704901694109 -2 0 -5
33 1 17.218594650788326 19.114462901320255 11.854625026300631 1 0 0
18 1 17.39745818748416 20.278107327918043 9.611729600680873 -3 -2 1
203 1 19.30950543360414 21.596762123302547 9.452035394720433 2 1 1
384 1 20.76320986599294 19.84984392305203 9.849803200290538 -2 4 -1
498 1 2.113894831477637 1.02823009980368 12.529368466646917 -2 -2 -2
334 1 1.3480775961218232 2.1684443552127557 14.636614075758795 1 -2 2
346 1 7.3630006977111995 2.541526878622028 16.20847153028482 1 0 0
402 1 10.968018099373039 1.9144943238624426 14.233024124860183 0 -4 2
172 1 15.294442613287874 2.4534604681440317 12.943271875299162 0 4 2
360 1 14.859638210620815 0.5916063084952286 14.156882930790635 0 1 0
469 1 12.806765596054845 0.8706926670773594 15.307602475281003 2 4 4
81 1 20.6409191643514 1.3399712296367037 14.793660578204236 2 -2 -2
137 1 1.0075173826065913 4.226235481785444 13.527457783258233 0 1 -2
454 1 3.8318985017788196 5.746699494446869 13.326369866390799 3 -3 -2
462 1 4.360113642048183 3.5012808129395068 14.191470491685793 1 -1 -3
146 1 6.458732236279488 2.5190064871268447 13.92508854902056 3 -1 1
21 1 7.7825851233809775 5.572725455288808 14.080003842591353 -2 0 0
267 1 11.590409429915065 3.8976160727686553 13.064706434402009 4 0 -3
232 1 12.043952490890831 5.694679996717741 14.633253373172206 -1 3 1
59 1 15.669565016670614 4.0899924971444035 14.541913127711554 -4 3 1
421 1 18.153709248361938 4.038094588198256 13.615527318338716 3 -2 1
386 1 15.621706810109973 6.604384218845007 12.306143232855847 0 0 -1
333 1 20.26036090616968 5.621516943703847 12.963107654592024 -2 -1 0
306 1 1.7320446996781051 6.0957681944255855 15.155817462461375 0 -1 -2
30 1 0.5253091495861097 9.017912394211155 13.582508694471752 -2 4 -2
181 1 2.8582360931069277 9.841903976653265 13.814603622880924 2 2 2
453 1 6.414003769508161 9.611882646709144 13.134491296228283 1 -1 1
191 1 3.3144813508796793 8.053260962896083 15.255178551969948 -1 3 -4
351 1 5.438989670317337 6.591790724843509 15.347060994182305 -4 -2 2
115 1 11.760774227298393 8.004479725636354 13.731941182384515 -6 -1 -2
459 1 14.510961182198091 6.132945260592765 14.369997607072715 3 -3 -4
221 1 14.13332633209456 8.821792422252134 14.26182202271395 -3 -1 -4
288 1 17.86877905694785 6.6450487783651395 13.298120785733081 -2 2 1
320 1 21.597815463760437 6.979760275034235 14.424854173328772 2 4 -1
42 1 4.028370663127473 11.88434798886199 14.450742375746723 -2 2 -3
394 1 5.689939731052106 11.913247466210574 12.80019704205086 0 2 -1
41 1 7.767369302629295 12.636587226658824 14.536288437528018 3 0 0
158 1 10.376141302894352 9.441433947684876 15.019745074956386 -2 -1 -4
51 1 9.588060691636572 11.28207572587633 13.699656917778135 -2 -1 3
344 1 14.950986036660606 11.826708744673487 12.690748798160696 1 5 2
382 1 14.771841766463133 11.152007042670068 15.163245043291402 -1 -1 1
287 1 18.209717095130816 9.837439730383679 15.572334686640927 -4 -4 -1
13 1 18.65595135172526 10.26667759783915 13.242872891023719 0 -2 0
180 1 20.808726931609037 10.925892211658745 13.856940606461794 -1 -3 -3
64 1 0.5520715831923534 14.315902901314276 13.619232945477233 1 -4 4
246 1 2.704044273981899 13.229342544265025 12.906395210636363 -1 -4 -1
15 1 11.177691731496258 12.849503558272346 14.134107094344222 1 3 -2
432 1 9.92918403064981 14.705646468747467 13.94677917368581 -2 -3 -1
125 1 14.193418829233313 14.396791419478035 12.968370623281844 3 1 -2
190 1 14.22524653526435 14.643559607073987 15.44743362145091 -3 0 -1
312 1 12.837672065184766 12.429528040122351 15.992838346989808 3 -2 0
65 1 16.816161512393872 14.335215254647766 13.381447943466572 -2 1 2
147 1 16.78750002178498 14.92504273827329 15.956445623490813 2 -1 2
5 1 1.9520767224031952 16.647891273336892 13.546940775848825 2 1 3
450 1 3.8217561925360646 15.3657147866152 12.812277679473349 2 -1 1
105 1 7.521487280425761 14.542997568657212 12.808403272723286 -2 1 3
286 1 5.761138799207294 16.07747198262992 14.06511636909618 0 0 -3
468 1 8.89764513942973 17.020605808987245 12.740178799802194 0 3 -1
479 1 9.563567060254206 17.96774633595546 14.961633576197384 0 -3 4
368 1 12.456739677816655 16.39900607508954 14.893750309552999 -2 -1 -1
298 1 15.102797444677655 18.933491462598486 12.881110354870842 1 -1 -2
140 1 14.467103756171184 18.344665560471597 15.174263274630523 0 1 -3
366 1 18.710613922678473 15.882123065775954 12.73450042153728 -3 -4 2
101 1 21.152473333471082 16.652587509081332 13.096672563105683 -1 0 1
71 1 19.05763079621973 18.572733939509867 13.562828244301482 -1 0 1
319 1 18.890544148643524 15.96451915637758 15.25369839045319 2 2 3
305 1 1.0972095204696408 19.37407098679295 13.633073831077034 3 2 -1
205 1 2.5311363891726346 20.400546391530668 12.187310030985318 1 0 2
429 1 5.610949036268723 18.521002808780842 14.121731900855517 0 -1 2
354 1 4.6644959786798035 20.694705844992093 13.33723750090892 0 0 -3
138 1 7.44055135080828 18.843414922804232 12.641617199299283 -1 -1 0
243 1 7.824207170910318 21.182959731410293 13.299188222912399 -2 -2 1
280 1 11.696019348311488 20.337595492944793 12.961484895613557 1 1 -3
389 1 11.80290575016054 18.89556845672296 14.947234989369202 -1 0 0
272 1 14.015630067210914 20.835981610560804 12.371178155444248 3 -1 2
184 1 16.56860436613431 21.53195137460435 15.469914211495103 -2 0 -3
277 1 17.473962060947485 21.350722950655697 12.945111797459383 -5 -1 -1
44 1 21.07396814306535 19.430550972660722 12.41917432450855 0 -2 -3
161 1 19.905708504167862 21.67154432819013 13.126149630255256 -1 0 0
131 1 0.3185043841877801 1.953024445174119 17.35306613917046 0 3 -1
264 1 3.3801981913761217 2.2664709000166336 15.812496436908729 3 3 0
345 1 4.148584216020258 21.666903892959457 15.389670181563313 2 -2 -1
134 1 9.632102911947724 2.108316968867353 16.2989651952449 2 0 0
497 1 9.82255776067965 21.473578000884515 16.971147129451747 2 -2 1
56 1 13.34630632004587 2.2565554249137496 17.28301426017172 2 1 1
195 1 17.422834337187474 1.5152171608364575 16.60604037631127 0 -2 2
183 1 18.977063880551782 2.8995977910062747 15.538967227066905 1 1 2
467 1 20.5301914484344 0.3106737449826807 18.35169700370307 -1 -4 0
481 1 1.8461677273849577 5.189877360418564 17.588937729497033 3 4 2
28 1 21.48824810377422 4.181556596304783 18.01652065458494 0 3 1
408 1 3.5329202842016607 3.4884044958889375 17.939354197740798 -3 -1 3
327 1 5.3438800756347415 5.4490458576666105 17.929731267935363 -4 -3 2
422 1 6.057107503756641 1.9616931028763596 18.485682054271553 -3 1 0
400 1 7.339232849982909 4.878567275219737 16.481090824924014 -2 3 -1
133 1 11.187126784883638 3.53345109583802 17.455332281350074 1 -4 -3
265 1 11.270520203497437 5.790765646653654 16.758010097532416 0 1 0
66 1 15.684589475386819 2.9822429211787114 16.75697135731391 -1 -3 4
72 1 15.990323782436356 5.102895497956776 18.007436964542272 1 1 4
188 1 18.273902022445885 5.308138317162463 18.731601355450675 -4 -1 1
347 1 19.57662870352447 4.762944920941068 16.774422647208407 -4 1 -1
375 1 6.466114569280686 8.857953298318582 15.423708634133055 2 0 -2
301 1 9.096881680558596 6.460843384590747 17.270194554423096 1 2 0
391 1 8.558252613460072 8.789083486053213 16.596695408191717 1 1 2
92 1 12.622051080644516 7.085523054229639 18.579083503729308 -1 -1 0
255 1 13.855239785373373 8.268637380820797 17.05253749684386 -3 4 2
117 1 17.894603986521297 7.356903412371715 15.651791343147885 -1 0 2
220 1 15.694294067420676 6.857535720143434 16.23540257896075 0 1 2
502 1 20.043775651550323 7.070794942481668 16.12206490774761 2 0 -1
156 1 20.598523407824157 8.471838063519124 17.94811818211641 -2 0 -2
67 1 1.5312115307188083 10.908017844067855 17.83673022847232 1 1 0
503 1 3.7547068562639505 10.014418610315195 16.715856987940025 -3 3 -1
297 1 5.429618953393645 9.324345225491932 18.08914251740244 1 0 -3
466 1 6.053240959190564 11.595286384476118 16.090810784759718 4 1 4
192 1 12.160830386159699 10.159002107024023 16.538216024301285 -2 -1 0
474 1 15.227283958394391 9.727262882024865 18.345589823354032 -3 -4 0
229 1 16.413570524215512 11.180731117025738 16.886555955687292 0 -1 -1
32 1 0.07059739216509442 11.508246869375782 16.104758173570225 2 -2 -2
194 1 19.809849326863027 10.708770658900153 17.136135614312327 -2 0 0
10 1 0.435593376655311 13.84731248048918 16.01337493668368 0 3 -1
208 1 2.473643296542156 14.252302736829911 16.781343343458616 0 -3 2
477 1 2.3317910275593254 13.032560894663431 18.982017914038497 4 1 -2
149 1 4.629641877705387 14.219699521596207 15.739707647397909 2 0 -3
449 1 8.17267318513777 14.181968743531964 16.33696201090904 0 -1 0
148 1 6.789469710415217 16.020711843048705 16.515225644643728 2 0 3
235 1 12.680761077434564 13.383815001333478 18.06209050890932 3 0 3
372 1 16.781305258309025 13.440447421920664 17.980953023064245 -1 -2 2
309 1 18.961699892886905 12.565835282544295 18.453212782354043 -4 1 -2
136 1 2.1694893574870058 16.613691791651267 15.967315108079024 0 -2 1
225 1 0.2549381049396499 17.550680019508125 17.164812232282465 5 3 3
476 1 4.049540277251881 18.284482695993397 16.18578374060906 5 3 -1
166 1 4.072419574468055 17.186659801273304 18.711355141622768 2 0 2
175 1 8.651518458650076 17.105688741406674 17.867269699512306 -1 2 0
406 1 10.409217887978457 15.957110904793028 16.242988975437527 3 0 -4
24 1 11.892013824887949 16.61733416030248 18.468911703374875 -1 1 0
284 1 14.010738570800006 15.370274485488316 18.05904785664368 1 -3 1
216 1 15.891932145539826 17.134922936907213 16.596785639566132 0 5 1
342 1 18.126929252822517 17.80395398106553 16.458706871879876 -1 -2 0
268 1 18.926975967207785 18.21242752228875 18.62023466427589 1 -7 -1
189 1 20.85026062164377 15.47537059538854 16.958845886798905 -2 -2 1
451 1 0.5749022920709368 19.52034817473536 15.912055792782699 7 2 -2
496 1 2.82529819935025 20.110479393758837 16.497631717984817 0 1 -1
199 1 6.086148174361549 21.644727055310838 16.972966721682813 1 -2 -1
196 1 7.8531574373391875 21.101147720531667 15.595722926504926 2 -2 0
455 1 7.285600650262202 18.849954668984804 15.80540643688406 -3 -5 1
381 1 8.068747555266212 19.127357168234507 19.27144084906561 2 -3 -4
38 1 11.96073953674666 20.875790543735487 16.395604650573752 -1 -2 -5
163 1 13.418940577019356 20.749019300438025 18.16301235681517 2 1 1
173 1 18.693787531671155 19.971921032688332 15.617387448699079 0 0 1
370 1 15.367230590564642 20.053534299154283 17.227256593317072 -3 1 1
1 1 20.55112175314026 21.084392221842 16.055310911249133 -1 5 -3
416 1 1.796145773293239 1.0294991215177391 19.240286296622997 -3 -2 -1
431 1 5.046604754034375 1.1922233752650337 0.194751048101108 0 1 -3
231 1 6.202547396130077 0.27611622763761884 20.29649775937365 -3 1 1
132 1 8.707885504530074 2.5424637762998015 18.989323352449404 1 3 -4
8 1 8.989293496116 0.7537284372860917 20.68075331749503 1 -1 -2
393 1 11.093844149929193 3.657747125146808 20.108443973497792 0 0 6
494 1 14.15687716917323 1.060418838255332 19.33784191904583 -1 3 -5
39 1 16.64882479304951 0.5638137972026915 20.195266466464858 5 4 1
487 1 18.35992462913643 1.4059590317114747 18.70490423716135 -2 1 -1
376 1 0.20817204046119742 2.227910071183882 21.73034582286125 0 3 -3
214 1 2.913138718252419 3.497026172414355 0.007862506754774864 1 2 -2
165 1 1.5608097774157461 5.512305030676339 21.324574983891527 1 -1 1
46 1 3.761171768748535 2.1867265209707947 19.97547419423625 0 -2 1
276 1 7.340241279034317 3.6948210965832406 21.79553057619358 4 0 2
150 1 7.353395522644283 4.614397991213976 19.573515642070948 -1 1 -1
460 1 8.89976982332277 6.519057517335695 19.6374975880117 0 1 -2
500 1 10.730656878070237 5.60269454320232 21.195814604954705 5 -1 2
321 1 13.529570760616702 3.3196831832569336 20.669701305573337 0 1 2
499 1 14.235038035821452 5.441527482036162 19.711574036972028 2 1 -3
379 1 18.8193877420677 3.4616282414374018 19.956700481972092 4 -3 2
227 1 21.36885488170248 4.0340551423375635 20.34011028552962 -6 0 -3
215 1 0.8339847042826343 8.97676215158656 19.17411421784345 4 -2 -3
103 1 1.9993329710591239 6.821952944301364 19.33714603808722 1 0 1
270 1 4.168262576618147 7.3583127621881115 19.10228116905063 3 1 1
218 1 5.431746166058959 8.03875115458048 21.030248658181808 -5 2 -2
29 1 7.903239124273158 8.34215917508181 20.74908044350498 -3 -1 -2
398 1 7.926532641655744 9.619246688175508 18.724164865693524 -1 -3 4
350 1 12.946615830800908 6.8172695364708655 21.793392145011207 0 0 2
396 1 10.962845472425439 8.125069174898586 19.522172602833134 1 1 1
207 1 15.510999291833874 6.7461663538678165 21.506386909935475 -3 5 -1
201 1 20.3447646194888 6.245680598839795 21.08926563855717 2 -3 -2
185 1 19.003714148806942 7.605319278455186 19.510213058937282 0 2 -2
361 1 0.17539310198166433 10.238453167269572 21.356894679089336 -2 -2 -1
323 1 5.727875669719033 11.106407120684247 19.894499327576085 4 0 -2
154 1 4.72219741848039 10.106263413357524 21.717826748756707 1 1 2
489 1 6.970374136846794 12.882406065435369 18.133913235650997 -2 1 -1
90 1 9.047675444130693 11.69914611505736 19.29574034766357 -2 1 -2
403 1 11.222433202932443 10.343730384706218 18.69412448103117 -1 0 1
210 1 13.66546311004406 11.271697651875352 19.145939850044726 1 -4 -5
63 1 18.19318829074332 9.39462425443498 20.993467122174053 -3 1 1
130 1 15.930129032838943 9.116063349733418 20.662516170201812 -1 1 -2
261 1 18.686546232080985 11.757639266645928 20.92257534539259 0 0 1
89 1 20.93910954637276 12.262980774385458 21.783188893767722 -5 -3 0
248 1 0.5346034070167756 13.966399651238694 20.512043339012898 4 1 0
259 1 4.470082076219726 13.312457918610074 20.061161768911024 -1 -1 -4
296 1 5.33520454068374 14.965818024776375 18.41785089352727 -1 1 3
299 1 7.211014969829462 15.44068491477682 19.814055700092098 2 1 -2
152 1 9.720438618968565 15.750060854159006 19.509265342315228 1 -1 2
362 1 10.134182397364958 13.698742363355256 17.94518476577575 0 1 -1
99 1 10.966456626100909 13.434347050719909 20.649008749472685 1 -3 -1
303 1 15.345833067921335 14.468172121719007 20.04864697118347 -1 -1 1
110 1 16.535283620602378 16.529727497930637 20.31127867993459 -1 0 -2
348 1 20.161917361131422 14.546556742607283 19.128938081257395 -1 0 -2
118 1 0.711022553557324 16.431917431014348 20.86114754218768 1 1 0
401 1 1.6014155288185923 17.43143625466513 19.002301513540623 -1 -2 -2
98 1 4.743716765329294 17.912837792642357 20.980079626121235 -1 1 -3
338 1 6.993483582734782 17.60032334584941 20.766700497882663 5 1 3
174 1 14.98724975193098 17.647135704480124 18.82536196334637 -3 0 5
171 1 13.231957452703861 14.861867343119128 21.426974566273955 5 -2 -2
236 1 12.409138712921505 18.689293870408523 19.278274899878756 0 0 -2
458 1 18.890169311421186 16.41004460933631 20.179328965898463 -2 -1 -2
322 1 2.8827529885464256 20.615248752473057 18.90046413854246 0 2 2
12 1 1.116543340214978 19.59595428103027 20.113649830914337 -1 -1 -1
423 1 5.85521181567233 19.346946282394892 18.22913904227361 1 3 1
108 1 4.6208235183122115 20.183154030883223 20.338362203116137 -3 -1 1
418 1 9.731333424902518 20.822497988918027 19.373815073228865 -2 3 1
359 1 12.761865203884446 0.34824003795246294 21.445889609063734 2 -1 -3
456 1 11.627951964604325 20.217771182626233 20.690054475247006 2 -4 -6
447 1 16.92405676471392 19.389804740539258 19.364054326007302 2 -1 -1
249 1 17.270420217358616 20.309014394352868 21.47438543336548 0 -1 -1
49 1 20.947122543250828 19.462076523479396 18.665752937632295 -1 -3 -2
256 1 21.50632559035265 0.1892085606442965 20.356331356689772 1 2 4

Velocities

371 0.7673685062414954 1.7399327070372035 -5.681480942536957
3 1.3724241627300182 -4.23679107345697 -3.154499247445349
40 -5.017265555036256 -2.4218294555746054 -11.898458838622952
240 -1.8876275370877256 -3.3675875629856136 -7.613756377365625
250 0.216419151715962 2.483797931782885 -0.8521274362990274
170 -6.562432439405508 -3.5863874115750476 -6.881926774006586
202 7.04880091309412 9.67177601348498 -3.2727729524945435
25 -0.16930530346310785 -4.810718870767778 -4.390453173112461
293 -10.167358796390292 -1.1578223300411294 1.9356476386722834
48 0.8707132990571451 -5.048270931854318 2.5713271893540117
325 -3.0842169046421644 -3.0932732076343887 -1.6837635858561335
85 2.416039539623149 2.599887515865692 5.617399954573595
300 1.8154356341730613 0.26547624489187555 -15.489875443990613
457 4.621126154654044 -4.787098342060435 -8.76910771500279
307 -10.218284673181314 -7.991584814727113 2.476078211606311
357 -0.6017228865670818 -4.2535092960847685 0.6027767007628617
83 0.3539940694035037 8.740602993000836 -9.47238686397236
465 -9.514918505400907 3.5712305064789827 -4.528879883565214
262 -5.633678826466951 -3.6697245882901273 9.181335935844038
269 -5.176155046027918 3.391128381951721 -4.138714516467982
76 4.848933607528346 8.713629339119736 8.504408118256332
417 -0.15062704463915597 -8.631875534945344 1.6546805751935814
19 -2.38641394036199 0.031202909982290312 -11.614273524834534
159 12.62032371668785 3.397959689848097 -13.868089829100821
62 -9.10054683209522 -1.0705803545633759 -1.7010902517738478
475 6.363989957478268 0.6119568970187885 2.735864410204656
439 -8.243642316655441 12.986059970709427 3.948218393112322
22 0.5594132848780381 -7.440691690518006 -10.745626469730674
94 -0.6892535250003036 -0.7128946013282402 -6.502258043101394
343 -5.34953800153231 -3.7806501436417257 9.302265545334606
486 -5.691184980852881 4.657259465975804 -4.559038809325294
75 8.364197026425915 -9.57694127302796 6.223901403959445
482 -1.1985761261567054 -0.14637417849594853 6.875478857761064
121 -16.69279215525519 -3.74905373654305 -1.4249893124498465
443 -13.734214879194472 4.7190089621308315 -2.6644788397499446
120 7.161763280378267 -3.789889119950056 4.096557399701779
290 7.671848544513381 -11.108759756789391 -0.0812445174248024
409 6.578645558957681 3.292375515171394 6.240066958289616
253 6.7270673255839295 -3.4940413186700985 -6.531178419402161
492 5.974752396227122 -6.213810486346598 -11.840920034489288
430 2.497136499676394 -3.3408842549450672 2.635743668302765
114 2.953857722177865 7.3377998218850005 9.472416432513286
353 1.1153225681128427 1.5400464265777802 -6.317483992095663
478 -0.6070592728168258 6.3378431108619475 7.547851692400967
512 -14.49268284577142 3.398925927539898 -7.052842890902109
435 -5.8816015012665375 2.407790652415742 -3.9209908994952363
217 7.174925154014175 -4.390685971510915 -21.94506968526176
50 1.379627259483385 0.7442655188508255 2.3124916784842084
200 3.7054142628054167 7.117622922312792 -0.25154611487682843
182 -8.590274912617751 5.085174190068603 -4.75618149679515
427 5.9404485792087405 -3.763207640473527 -8.86891717988576
79 -1.0468338757518274 -15.537145325559417 2.423520344327707
369 -6.434244554264531 6.3444182635844895 2.1567482270118674
278 -1.0890852965450948 -2.9214244645108014 0.781973614378695
302 -8.609803401458331 1.369404727741987 -3.451825046315049
119 -4.720993337497845 -12.453756212302812 -3.7388771316499443
127 -1.6215208792883895 1.0053543645272833 -5.733741578481524
70 -6.252574088280358 10.153039815134028 -1.761029894620066
20 -2.6998553004604773 0.5532541679883544 -3.3223385459696173
374 7.447720841204242 4.677809128699045 10.949980833241945
444 -9.259318712185376 5.478670658101104 3.1808817993388847
326 1.5148899513117682 3.0718091459864474 -1.1261487117183353
488 7.762253325747096 -4.888922306124215 1.8997466028735475
316 1.0365758670253522 13.827024195420746 -5.131229328618264
27 0.15290026412798252 -1.335678631687194 -4.575012240651635
420 -4.416563835431293 8.996604733507688 -11.733951001652608
461 10.936734483532423 -2.560130220705123 10.157972997747857
113 4.720554922540237 -4.4890127407781275 -6.4339210589950815
111 -1.3617706017256435 -6.365363168049339 0.06489171840972549
373 -1.0099230763789921 -1.2408963649614653 3.0668518576881945
162 4.204912339817509 0.6800316390040495 -4.738841879996875
224 2.9864459987265897 -0.4892568696974624 -8.986194993188505
377 -3.650991252153418 11.108641483582485 -6.667001124536894
74 6.106946549662625 6.59362696356166 0.4412220841459295
329 4.458499423246433 0.5844643926663279 2.9426938745984788
341 -1.4557814784491652 -3.216776326972947 5.400192124053862
273 4.86286678578692 -7.197905919425493 -3.0518426908558745
151 -4.640303532848447 1.3999219794733804 2.5652165760503793
17 -4.68377579092139 7.974701677814284 -3.039381230552088
45 3.341679075533599 -3.9893702507803 16.05471697286898
295 -3.366275466410468 2.847710037937667 7.948533611573402
193 -0.1742829543641746 -2.6809004241612344 8.031382135280658
405 -2.006742040118023 -0.5232904597671361 -1.8005283182349292
226 0.7742144258521567 -0.038765294570713274 4.235548350780315
324 2.13825750902521 4.62292369173019 1.5506295586592833
387 7.259928973391988 -8.285858885641991 -2.334955780095501
433 6.705207703890866 9.002366570601307 -1.0735990188528273
247 0.9699173626529852 8.229473036750768 1.3242632635935776
69 -0.6102281540052937 1.8400081665412225 -6.458797362817052
388 -3.1619826614611397 4.3451182990438655 8.920571722156609
282 7.292223322782484 -3.0490245914411407 -1.840342457679781
493 -3.18423978851419 -5.7902696105515865 -9.045496010581694
426 13.637131933901843 0.6466444744354042 2.0526875849575283
242 -4.183907018409804 -7.351230065921641 0.7630700070545082
349 8.0824990587926 -5.847601949804036 -0.7924969498626263
123 4.831992728861678 4.40194174284257 -1.6266727091382833
84 -7.734141770855374 7.600279987394688 5.762670323351732
352 0.7557258873885355 -4.2997692883594505 13.717308069046776
95 -4.639108415306279 2.674086419182892 -7.527008245627596
238 -3.484522979336138 -2.373771014497666 1.3872437781963893
511 0.8079693777201149 -3.152332454576365 2.386037148853301
168 -1.5174445179157257 -12.112902020454477 1.8936372266088708
179 -6.904768411154956 -4.004144449890977 0.8502601600533081
283 -3.034478310621067 -0.24634701638894513 2.36905323786308
57 0.9157030748861523 9.686526183597534 7.576581459754849
438 0.05268559665507193 -7.067863189190278 2.1618611720340195
308 3.1235832442251854 7.002350590988969 8.136840154739213
506 -7.582551663916331 8.378879557561255 -8.444136119309228
473 1.1119582264499739 1.1760452687810818 -7.337634227249557
437 4.0077341609505055 -3.304947452311153 6.3265264876009075
73 4.969338941832561 -1.4150847504755149 -9.445969149055395
9 -2.9270086443491166 2.8113263482339375 -0.1304416819103419
26 -6.6655905073989565 0.6323351592187683 -3.0678679126572383
436 0.3044304525061702 -2.6190418251123573 -2.9408316823197085
91 9.101499170992653 -3.068557884395841 0.417433579690938
177 -15.2174760035122 -5.207164580587842 5.659203219201589
485 -3.8947802527286224 9.993032794812592 0.8465293467789892
378 -4.09749933118753 -7.722320434498403 -1.7301617398223783
505 -11.447719876497416 2.078617884723192 7.553245350899913
414 -2.4903596098497585 6.24826282570137 -14.625534286256977
239 -3.756027904538752 2.769184992493437 -1.296150106112352
317 -1.0320732415585985 0.18672861130430546 6.953650309558851
2 6.371583536390093 2.6238995069283098 8.284384559088496
332 -6.667953835479385 12.709113485199273 2.4699416165471595
234 -0.8880234034512827 -2.0033138566038704 -3.662163406103138
385 2.2149371945242993 -4.253410611303872 3.608653045262877
23 -2.8279390010261314 4.055824748940508 -5.838675009070624
495 -6.787626987162126 6.8099489622968985 -9.551466630370298
7 7.053479929421954 0.6504629264436472 1.2803663019310025
407 -5.442713362026867 7.289148303271727 8.940806737121962
139 -6.741439255636982 -1.0531876506934916 15.721300758954628
213 -3.103641748552727 -2.982989139319775 3.8104967972017265
331 1.0656780971708835 -8.203097218914282 -2.8424830020223903
97 6.48926744662395 3.8727704517135373 -4.843580443290495
392 5.556610447830317 -4.2624073558108115 6.569188634843131
464 0.4029494382921147 -4.224706905591198 5.55985399713041
109 17.06679600988805 -8.197588300119483 -3.2292930656309897
14 3.2126327749770955 5.256264749380971 -1.8509632585013944
80 1.7857609313126 0.4072333625864554 13.806454627698715
186 -8.034509338404298 5.9732298658500635 11.603152115638366
37 -7.708373050812224 1.8802520320239349 13.943801534345353
153 -3.52321479120066 -3.7387140992305112 -2.4759313373851413
271 -2.4805427758797705 17.300714353574143 -1.644657427267584
106 -1.1347244043331686 -6.914450064219009 6.024013918895311
328 -13.1573025415472 6.968932974951376 6.88560325851106
61 9.777111032053813 2.231054993302875 8.698356186148489
275 -2.8066587461231634 11.545517059381096 -0.4229551368130373
144 9.730235893619863 -1.5645266207971222 -3.449960084144862
452 -1.5999983182181872 -10.425165880000105 1.3113604976603412
241 -13.894550220151148 1.5904069604928146 0.20676623415099096
126 9.347199867585164 2.8320690381266087 -4.884634922516928
367 -3.464409920785728 -4.287887552751716 4.204989323702715
11 11.210100887113386 -4.581291885985705 -2.1007056645611892
55 -0.12977225769837686 -3.8059334685067987 -5.390263406226168
52 -3.095762014089175 -13.208741711805366 -2.958307550336927
504 7.523368440666523 -14.16379483557583 -4.40514868141354
318 3.4371808326134206 11.1586565670052 9.671499970201804
222 12.374254548104684 0.38474742556392627 5.313134522322388
397 8.256565061891967 3.2088448405645007 -0.48631293928119534
245 2.624232961487842 -1.598341046357127 9.738845557358239
86 13.750435023854637 5.717648993054131 4.43880909658351
442 -7.966657865335003 0.5642401479629691 -6.059573770429727
58 0.16970446228719824 0.8323801757046971 4.283677099484604
47 7.87245388650721 -8.877607613998064 -7.131775510877699
365 -5.811632501160208 -1.5490488417487691 0.9981813660022804
116 1.2654763383714762 -1.5777887201591922 2.1133874937392445
36 -2.0768832490993674 4.071282169780285 5.8437049779168175
211 -0.8751074564850423 -0.12063234513149565 0.1079105270360791
315 -5.176144875986511 8.332041369576743 3.302783183638104
501 9.420028932605815 7.53382799749115 10.287558018438972
313 -2.870433938139201 -1.6276757807577353 5.4316325588206436
484 -7.1354415550588515 3.5468970439282885 3.5747744969017115
102 -4.580821916788936 3.293964979587302 -6.100612807715872
340 11.721612195224306 -0.22449936074640542 12.714652020509497
143 5.771586269465908 -9.181908960880756 -19.377380746859558
395 0.6847575108686792 -0.8846228808724663 4.366793573524119
258 4.88949252663159 -2.474782605875915 1.6168997764598991
34 1.920007948720691 -0.36159999928254943 1.1661574770881584
43 -1.1998854189315262 1.1529774608296184 10.575558874499992
260 -3.3224928466801753 -4.698711223606783 7.0629512051249606
197 4.031980447726352 6.890286193048716 -7.982529592396648
289 2.172212470010875 4.934028200887205 0.4693644427786431
355 13.16115818441766 3.7858824039964465 3.88939307800861
176 -2.6691819841115683 0.19879762723774894 3.19843469657341
124 2.1233989633668737 -4.6019572743133725 3.4404575312435908
404 6.5640729541728655 1.4650412044954546 -5.432434843383141
463 -10.243160271341718 -8.721125494101214 7.080210404150779
187 -11.297823552707436 1.045647624196489 5.658402239838617
383 4.642917017590286 -1.415700393098553 -1.2357662206267637
266 9.603794664732401 5.728756940217852 -3.7086332346940045
441 -1.5172159663413785 4.003320010884241 -5.851824249546723
244 -0.43805929532266563 -5.371455771489964 5.756443437363238
330 -3.73601179313111 -5.690925296241565 -6.3565507570618625
292 -2.4086945873772163 -8.825397953979984 1.7371225667954546
470 -4.714808422872941 13.953013674078306 -6.197324768508516
508 3.5667347689963727 8.69494297719296 4.612970172995473
68 -4.331695826269362 -2.617220798198213 -4.634637285025257
78 -9.08850102122405 1.3887771787780516 2.6638598459627745
82 5.148107256142502 -9.143755984849285 2.2641840539199016
4 -3.1447955419510043 1.329032729271157 -5.6252151298389155
35 6.652798207566737 -12.731577611157997 0.8082476715574209
490 12.381810604874696 7.875208265039897 -2.5518311422302835
209 -1.7059231723942792 1.2917790671476315 0.8427393970223477
6 7.358057707682934 -2.7633802021891496 0.38736405058675716
252 0.3741452427478329 -3.3723351133788615 -8.720140731572123
122 -2.118148068375628 2.1257040674280843 0.15964412404450018
448 4.727053383130324 -3.923894531766618 -5.8179268615270425
413 4.31979091577315 -4.5632672541981885 -3.335750801022014
16 1.8763750875257197 -12.698854192507115 -4.664887696731282
88 -9.138526588418685 0.5462629272581031 5.511221927601435
399 -1.0553536902209462 -2.246488232510045 -15.189779326706999
281 7.580341719531942 -4.989615252775381 7.102806588006074
358 11.119057548852307 5.427732029234211 -14.145505419616876
364 1.693209914418805 5.263205276074532 -8.318498593839267
356 0.8039019578076106 -1.795373396163714 -2.864012707683388
169 1.237556312767257 4.66018390888212 -2.060466520939403
445 -0.5156491870031893 -8.398478032983684 10.153853024103206
107 3.2480615261298547 3.0745809245209266 7.296475807374374
251 -0.23295090390725517 -9.975888279399184 5.753267340174829
157 -5.25174698440219 -2.977132598757851 1.284422797784567
336 -1.903139298665743 2.3887430567337486 0.5324402100933766
254 0.04370869955828058 2.0170554745758458 -3.983102071800683
31 14.734146031204375 -0.19525466086027546 -4.30126314183821
291 3.3322084571874218 -10.080787915896257 4.413397351633798
285 11.42743067663513 -2.982331902703795 1.0903470437776461
446 0.1205167200746795 3.2024185971658907 1.3885948089562212
128 -3.83645178800058 -0.400584850659385 -2.299820874416489
141 5.426401663672631 -8.127529382882253 4.767295783278737
167 -2.0979906844672676 5.742169988923539 -11.197972194148925
294 0.184108412078304 3.0911932912588664 3.4522771184980168
230 6.693164231728607 5.190448405608368 5.030382045772135
54 -8.426127171991673 4.2128667250792295 -2.470880357960382
274 -1.8180055029373159 3.4600126691309807 -7.838279991377179
440 -13.293166242498696 -4.561879337087182 10.869199766748034
335 -0.984898562001428 0.962650402494312 4.951684039179749
472 -4.354549602010662 -0.6587429724286537 0.5977029449632332
310 1.8688627863718903 4.610540098428502 -0.5426514523076165
412 7.014343368131617 -6.952076034649085 -6.8162102524963855
380 -0.48493832944151716 1.0299511408921698 -13.77696117915811
510 -3.569390196931582 8.391511732826752 -4.6322911393234865
135 -4.6804001948368565 -2.2236001616213303 -5.24498584502235
104 -0.053473241931918804 10.00622439692318 -4.101156513571738
204 5.6272218435282895 -1.2689105325699075 1.4513949326657452
428 -1.4599508354092419 2.1116168086476037 5.688986300332163
93 0.9032689773225295 -8.714739773859028 -6.467424968293955
337 -2.615288605221271 4.399097339740587 5.617221086131309
471 0.03796824831209733 0.2816971288098525 6.3204752394868935
279 -3.2129672099842326 -5.0894718809210655 -0.15889899898268178
206 -8.72242749352857 17.912788563072755 -2.354686017451602
415 9.13326819129426 0.40235791004077537 1.5079629693409446
339 -4.80750709298194 3.6294685263661752 17.69632450860948
96 -1.1472842352319708 4.688575538958244 -2.577720073125106
212 12.091582586459596 -0.6673468048725832 2.509809149795174
77 0.12924881769650165 2.5063204795783545 -9.123078245880798
411 -4.774107131916076 -2.4606254124410265 6.098259008931492
87 -4.067618957425556 -4.878940373840253 -1.2384630318080752
160 13.21503649122052 6.60012049827855 -1.091512245438641
142 -2.3259448895483237 1.382049625449469 4.0465963485483325
311 5.029164234388111 2.484418173009917 1.768500949417228
390 -8.154582730348874 3.0552816798177633 12.05130079658402
304 -3.675418749463644 8.537111166778821 -4.20425077928034
100 -0.1723715212591719 5.6193490251833635 -1.3059131344438244
178 -7.067624352810992 -7.717168961070071 0.6858921182341786
228 5.0662251893082635 -1.5472725042306077 8.410585612888836
53 7.098707933469953 -2.303274434222466 7.25641689555884
257 0.9432936539617968 -5.879815331048641 -0.26409357173392034
145 -4.985816818223787 -3.6951982791104863 -4.93567378314527
164 1.5594517685479294 1.2569308373970298 3.2425400906952535
129 0.6424508347974228 -6.025614778172266 3.059446288961082
480 3.203665870471257 3.4925447604800754 -2.72464049114463
410 2.306274316968106 2.58327229599144 4.733327046062668
483 6.995380265275173 -15.041453638066269 -1.5429285592260649
419 2.6305500192851263 -3.853314830823439 -9.833465058596182
233 0.7259604890029538 6.549015488328563 5.539898511701459
155 8.164022216040149 -8.164094421565068 0.1929343496402014
424 0.6697043948099239 -4.322596448602378 -1.1676081122329165
509 2.257231283888415 -1.8058478548657644 6.756047626458839
263 0.7157347492076165 -1.7136757374102392 -4.841607968521268
507 3.176924441601367 -3.4924300308147322 -1.971980014703072
112 8.385312363982178 0.036732618202668 -12.363809965922703
60 -0.8393331355302232 6.0019171211829025 -3.601660209091851
223 -10.204714913374616 -4.798337235340915 -6.133794433883769
237 -14.445292355870066 -4.642471105384565 -4.731806156812133
425 -5.364659071851838 -1.130849681805832 -5.894427215887984
219 -1.6085138567101962 -3.311396213108699 7.49141888247218
314 -4.454092292739839 2.6040849869215226 -7.828049869724024
198 0.5314294849338606 -11.059768412843669 -2.565299989271566
491 -1.3399638330473655 -1.5327716005913359 -6.750697026013286
363 7.683443835247463 -2.7417153256450826 5.267056444446265
434 -6.663074857198033 8.068389281247342 2.423835048959931
33 -9.447387919729621 -1.4511180218057225 6.185781332289104
18 0.18850309303518045 9.279860234789322 2.710735061079867
203 7.579678616470703 12.592002359473046 2.1976264417197946
384 -4.893414482839629 -0.3041008924703855 5.925822923239862
498 -9.339871363298483 -5.844854928382055 -4.33386596128138
334 -7.476183918156066 -4.714546755879908 -0.04825585156429884
346 -7.11529171097924 -0.65559712331148 2.897860366570254
402 -10.449816553784807 0.4142674466492129 -4.249127583726873
172 6.017037089260927 7.663292968701154 -2.2805963776037053
360 -3.542087590270338 4.584080653178494 -0.6546966669659382
469 -4.003670705106104 0.5951802458198622 -6.016831062124384
81 8.772133823238795 3.360427004841459 6.625571705657365
137 4.5623847631066 -3.4430590195468507 4.7959694265350326
454 -17.90614710763158 1.0889359982838847 10.290687589233931
462 -2.706096349659274 7.470417260806836 4.776638065256361
146 3.9818738084604712 -7.626284365260786 -6.8478298953191405
21 -1.722995461350972 5.131796672762089 -8.685087862025316
267 -12.018949036371907 -3.1438252629342696 3.140550274009889
232 7.958645817560664 1.9547507857934356 -1.3471747124844065
59 -12.468593380101462 -8.909258013632499 -2.08317940624088
421 -1.1894903147506397 -6.880933747854493 3.4030597140860896
386 -13.070572634670862 -8.489220053129664 3.2601550076211696
333 5.058438309327342 17.874014421021357 0.4879785322437467
306 -7.163671418981841 -1.40508445421118 -2.5717075358664823
30 -5.035144074355233 -14.241297259656658 9.092074871792109
181 5.23399452335429 4.129095859190734 11.94388559804535
453 -0.2196555418716 1.1072024968327001 -5.657129288332375
191 -2.4232453652064234 -6.938620533767143 -1.3254893895454356
351 -8.114548376288749 0.022939448523002687 -6.141406557505099
115 6.667040660438534 6.363484953848938 -1.1255995114201838
459 20.59260743774809 -4.561070081300523 5.939599747746418
221 -4.373999187271485 -8.311665337232547 9.056956797857614
288 3.7724538427334493 -1.3815343076049846 7.41079980081982
320 -7.087408246024012 -16.121904987755478 -1.348064054772807
42 4.842516742565839 4.80538756183892 -5.011478567988224
394 3.4142937365852104 -1.0860539247667989 1.3968657384491614
41 7.265655804132967 3.9683921081649767 -2.9598050758171874
158 9.242517338932505 4.09807017127572 -5.315625389679095
51 5.424156756881301 -1.1426032135603077 2.226847861449587
344 3.1527200997004754 -0.2396461161625977 -3.1224209465342936
382 -0.9169316548796255 7.782511631135121 3.02168194973985
287 9.168721078568428 8.260207583424537 7.952049562419139
13 -12.558791677792277 -2.247392277009671 -5.419373468338259
180 -7.652054922671656 -8.050107231526447 -1.0959911384759806
64 8.295672748978907 -0.8237033104333301 -4.65548181154148
246 6.764523080635089 4.365171965695342 6.706378965519296
15 7.881849777958471 1.3008967473496666 -5.100678563834316
432 -1.3368361340353303 2.939004466210521 4.725284567537814
125 -1.4823419562621398 -0.898581250211546 3.0747600863109215
190 -0.026865848161757643 1.1368842283535276 -2.6988829251007482
312 -1.3086254747414612 6.760689449993128 3.821186189731574
65 4.0390521839208695 -13.190810900912584 6.602162168241048
147 -4.4584913582322 -2.969763210807273 -7.686600879378249
5 5.730604704707885 11.361447645748838 -4.418441977316867
450 2.654799046041908 6.678171011061635 -1.4737107481322873
105 -7.022375613534018 1.5796482700458214 -7.2331271725137025
286 1.255071557385118 -8.84597262079998 0.5330079485523853
468 -2.15747591660212 3.5822991450736277 0.46862846776005473
479 0.5106475915729126 -11.070030302687 -2.2784628820627075
368 -3.8250401396021063 -6.223001643810243 -3.544746895884717
298 -5.983661205329752 8.433355940445988 -6.6633415144847525
140 -6.298012106649596 5.6764822167973055 0.4360266991827056
366 -6.817799335635472 -1.8506060389659547 5.664861661841382
101 -9.842879068852433 3.1028372169133096 -3.455645372278566
71 -5.909571418555135 0.711716190859449 -4.140587233304449
319 -5.090304382602994 6.076062836754184 -12.811614668778663
305 1.3980623782166162 0.021323391413931202 -9.855171624220786
205 -3.211193447300267 0.11177792725837966 4.288105832708567
429 5.31488695508997 6.83468114565121 18.135041136391663
354 -10.613154883987098 6.609399097853023 -7.814496265022519
138 -2.319410053019093 7.487173438776069 -4.828851987888379
243 2.982185471648474 7.809162992690056 -4.838978295878364
280 -3.51616755518308 -5.656641213688084 -2.5674830021382435
389 4.948442785443737 -1.8986737533368079 6.284468065344204
272 -2.378214329071747 -1.0528843143735884 -8.138149443302517
184 -6.306515613401841 3.3386044632314373 8.020086018021832
277 -7.050514769304865 -1.9616661207813892 -5.935929543094413
44 3.860864658595007 3.435320232838743 -3.9666191332403655
161 0.7816614438744038 3.4603808851914164 4.31724414426822
131 7.156618485000562 -2.8079005295447375 -0.6900824754778239
264 -2.3325019880607183 0.31145902234962547 8.937879057075914
345 1.832083741244859 2.8651890818449752 4.178542463870814
134 3.1007154617973605 3.3886827266478963 3.8196972023219145
497 -7.034622520551504 -2.2389376194027357 -0.7656176096030197
56 -1.8600231652592603 -6.190714081958407 -1.2439721879468075
195 -1.6277530773669997 8.680671232400464 -12.443335080860434
183 -0.27938218938318304 -6.730376548649333 -3.2787675731323436
467 -4.168743650614104 0.386663299720749 1.596760597145199
481 12.429181889021052 -0.42538588124782545 2.017820864710566
28 0.4649321963105305 7.377226774561871 -3.0239644831865293
408 -6.905874919155284 2.3587749750322593 10.182487674441404
327 -5.037798884366985 3.010888639907512 1.3071477201328978
422 9.097917695359095 0.7881432303122745 5.459633081513413
400 1.1831478249505483 -18.10160958023432 4.334372688890976
133 14.324038004033344 -3.096986382420168 -11.981004139402621
265 -13.614502751654088 0.9895940185297807 -4.340724026882599
66 -18.108142668542936 3.6732187429052314 -4.125975804957845
72 4.884213659786277 3.36310687046275 6.236907991685406
188 7.658505809838033 5.409245085306473 0.09458205462411699
347 11.992021199315202 6.754888286218467 2.6958973186799238
375 -14.11305739074223 -4.141294113999991 -8.954569010629642
301 -1.0270845199821628 -2.5797971652872906 -1.3301345112241665
391 4.091803038771203 -4.405465446839529 2.7189437688076454
92 -0.39798921019650024 3.772967740976814 7.772158895944385
255 11.049435624896105 -4.293930749531791 5.1374638401014305
117 -7.752795212471714 -4.966190496646736 3.99081356336777
220 1.1134289451652921 -5.538783658893985 4.174874088391911
502 9.925422427847112 0.27970544599628033 -0.9689004857032212
156 5.359133199022114 -4.802716782895001 -0.11674051193101773
67 -9.82115014707291 1.2971270708735323 -5.38575865672941
503 -4.450688677661569 -5.275006861149725 0.006635541461798647
297 10.354917302214417 -10.287654753712244 0.1747408441422496
466 0.36943164649461907 -3.3907531797563277 2.711098591532388
192 2.2114614202815073 -7.211348068267213 -3.389637999715217
474 2.509793598350407 7.931520170019083 7.0612797631411075
229 -4.235713659861212 5.027029578792585 -5.625637893668533
32 11.282234228555362 -4.062778224013063 5.918969464542537
194 7.076109452402815 -2.377543126320222 -2.962283253958808
10 -2.0972562208223207 5.305934672199785 0.9589129052400941
208 -2.0427687869244324 -3.7783825675433564 -1.9023927006799084
477 14.909447044401734 -1.6989440471619077 -5.138615593962324
149 -17.281597115464084 1.4140139681545616 -1.0922656310382637
449 -5.139459937247161 0.580285489174976 5.22181358778162
148 -5.846796129846734 -3.9033009695001457 -4.336317090244753
235 3.9568851196715955 -11.638837999247635 9.934325631465267
372 -2.4021754558829884 2.309086496011576 6.055425245310055
309 2.516981542962557 -2.4934961123243005 9.585491241262739
136 3.502459068158271 0.18142653080750398 -2.267973814813531
225 6.706751440664577 -2.6432047951182067 2.798360408736467
476 -1.4065535609103275 -4.908305337069829 1.5099836827409383
166 1.908284007713803 -2.1936683497195553 -6.293213195223237
175 -0.180066210027166 -3.819929692309023 5.750319579764608
406 4.641582470758973 -12.22174887549855 7.197748580023996
24 0.7235293159764445 -5.468303070994637 -0.7423464658524102
284 6.125497954799918 -7.9176855724479775 -1.8941347278437546
216 -12.629957371763584 7.3272847844434255 2.461096909248766
342 -12.981169908585473 -2.390446004817419 -0.3249984543215532
268 1.226697699021462 7.403735507396297 7.685786034781672
189 2.842049125603183 -5.14410249442977 3.3258845327961404
451 1.7181360878221315 -10.176384711009847 3.6621361064771927
496 2.7323430361179066 0.9738684941224958 1.7267438466069887
199 14.761786052403764 -5.883256865528955 5.0815052778413605
196 3.9363694942956786 -5.246379372781331 -2.7636359948958087
455 -6.5295342114490795 -0.9606979506864007 -17.208645433661797
381 -4.934201262869416 -0.008771413405968615 -9.306226429856093
38 -1.242921185419007 1.861813979364328 -0.7287378297313183
163 1.1767709500553065 2.0864399417691013 -2.2244167587237116
173 -3.9631184836397857 -9.757335239091905 -2.2192758932320733
370 -16.887707878750643 -7.6365316804080985 5.161049551511889
1 9.919343885348633 -3.1189400819881983 -0.9912166911676025
416 6.5983983694415445 0.47046669770908683 -0.39444192504651376
431 -1.2593295237563054 4.862075804686903 2.9828039410883473
231 4.058812557821405 -1.1707343388533815 -7.722156516540084
132 -1.2051643584972869 6.022087657712699 -0.7724659130374151
8 7.272110045028293 7.601844618347115 -2.4110616107428244
393 4.055325628172369 -4.650897256321025 2.529711209714683
494 7.685605003516759 11.303692568927586 7.669583750021118
39 -3.3193864317789505 -7.160047730167548 5.1835164904822415
487 -1.0868749364694634 5.56618079184316 -3.6714441387364873
376 4.596612230197183 3.946169621212057 -1.7936039916930886
214 12.355734791999982 -5.622016025935048 -1.1714269810054652
165 6.959352708440531 1.8005649673615074 4.328116946725765
46 1.6223488622069318 -6.5341365381943435 2.796992733091345
276 1.1849362636901037 6.261650647300594 -0.986537389426722
150 6.587704777446607 -4.6169033202575305 -5.127547818369351
460 0.8773244355293741 -2.506146215916127 -7.96504303036178
500 0.11223390028035554 5.4288755570651634 -0.22298056584935044
321 -0.20845731783009003 7.770666326280049 -1.9464247357805005
499 2.0186828526408207 -4.3633117185455115 1.1212761418976533
379 -1.0212910500242722 -2.0379232895722104 -1.9893615006732066
227 3.886007546532651 4.329218155104306 4.890273537268089
215 -3.597445177217095 3.39007776290218 3.7385352288299396
103 2.8043315603826384 7.533265998927857 -3.739576448164057
270 3.057177874594991 10.34223865683295 -6.930468942894139
218 0.3893504752707795 13.494156416720324 -1.663934420445251
29 4.863563385628076 -2.5839511527013674 2.699765886687207
398 5.272183126691297 -10.434082848190716 -6.993558554413386
350 -3.4180213846523104 3.5484746042524935 0.4149641438682803
396 -10.936197561478453 5.260283318749658 -0.4514755301197959
207 -7.651409902527059 2.3371695640304466 1.105667693860606
201 -5.849635465530415 3.7946454069467097 7.318472779873953
185 1.2580628033090882 0.07711943639241078 1.4897490926384918
361 -1.0288873278507682 4.517688811884719 8.154406647445354
323 -4.917962658332568 -4.495775493874011 2.764006912233729
154 -1.9379601944487197 -2.4910748662838786 -6.014202098601853
489 3.3565884891656244 6.0162495927735815 -7.903666150633421
90 3.304357476014204 16.347742385007717 -0.2701294397173819
403 -10.64687834228101 9.845432896062775 -14.210111806706479
210 0.22034842434056678 3.7744241831016554 -3.4258638266727037
63 6.240590528980445 -7.863152846752793 -6.599344207398969
130 -0.899354110689899 3.698424058971881 -0.9161814810849707
261 0.6892189378454813 -2.9804021325225794 2.388297970022325
89 4.4435329549560905 0.5677279970662714 5.515645555231982
248 13.599350246725443 10.381458808548219 1.5759208707547707
259 -2.817939481684572 -2.9795050300633146 -9.633619979125212
296 -4.631570911234705 -0.8982951860665336 1.607385660950948
299 4.9092555001469185 1.2873418654782787 -7.740403312787259
152 -1.0547748451751195 -1.7915624128573016 6.189856388703825
362 1.521661965534412 0.6841780106527064 3.1007929655656565
99 3.189572459336145 11.726418348483785 4.876751575492024
303 2.855631618182982 4.79852628452926 -6.487385583081858
110 -6.0788921572835015 -10.612989740934383 -10.60405652631502
348 -8.942319521366397 3.123150755659341 1.5474636998044735
118 -9.759266342631113 -0.8182041819793151 5.119470980557301
401 2.4230605830282754 -2.4857145465405086 -3.7398016883907643
98 -1.759475713727089 6.787592395264762 9.537274955745426
338 1.1774094814890013 -6.805504413087875 -7.362321987690629
174 3.178020672415529 0.10857108990368093 -2.408614852926113
171 -7.507178724260892 0.8510858394416398 4.2507904952673785
236 1.1310827235183243 -3.1037419058672153 0.8729701004117458
458 -2.7593501857464826 -8.565375911334876 10.018004685710673
322 -0.11636294597098348 -1.1450369473803075 4.123219522469288
12 -4.113451154646198 -0.07585023544412256 -1.3930809192689066
423 6.921061084500927 0.2951766274151701 6.209652091922322
108 13.032968471802523 4.875620391983629 8.769568716775446
418 -14.116956078879848 6.692868023469997 5.330280307272878
359 -5.366717778273969 1.3876445488117726 0.3876348414413162
456 -4.700078070762974 -1.4384162089294936 -12.843411504109955
447 3.742730608010969 -1.4965199628208845 6.880245216155528
249 9.14502935966283 -1.6249584230228704 2.2914209786959847
49 -3.0226221208540403 -5.113017560600482 -2.9353415027475855
256 -2.749206355614609 -0.7707928291371344 2.4073660895956013
