LAMMPS data file via write_data, version 22 Jul 2025, timestep = 1200001, units = metal

500 atoms
1 atom types

-0.41255303015612377 18.299706380161282 xlo xhi
-0.41255303015612377 18.299706380161282 ylo yhi
-0.41255303015612377 18.299706380161282 zlo zhi

Masses

1 63.546

Atoms # atomic

332 1 2.207991617501558 1.5206506797931025 1.6388799614743759 -1 -3 1
272 1 0.29208206943210824 2.5614023604888256 2.1957598165738585 2 2 -2
99 1 0.14112152529845423 0.33106774976709075 0.42779977530102875 0 3 1
218 1 4.444031811123126 3.303663537261395 0.5490554660536185 0 -2 3
425 1 4.092850663972021 2.866702506171159 4.482979755945933 0 0 2
342 1 17.718053989512754 0.41344105460193636 2.3955115830355433 -3 1 1
70 1 1.1509689155761302 3.7199908509237902 0.2816772338563981 1 -1 -1
151 1 4.003592455700965 0.6231170053800854 3.2871975921631345 -1 1 -2
270 1 2.6277149160251674 3.803707206034809 2.60052090479443 0 2 2
41 1 4.744029114811389 0.49117629406802765 0.8419091258072471 -1 0 2
76 1 5.501461738142337 2.2705818980809744 2.457001390230806 -2 0 -1
136 1 8.427305046331556 1.9919754472597044 2.497227771537248 0 3 -1
246 1 6.796329937015568 0.1979246863995371 2.19048813902144 0 -1 -3
493 1 7.347679661976675 2.0939150052573963 0.2697546914289982 1 0 1
301 1 7.656883602019191 4.003944764227207 2.054638780896884 -2 -1 -3
199 1 6.50336442339497 2.9560277450289565 4.429578449670071 -2 -1 0
62 1 8.30735397393983 4.638874600644799 -0.3275400371678421 -1 1 -2
336 1 10.506724335287796 1.7946401579978146 3.8143580387653326 0 1 -3
477 1 10.372135210315426 4.191859015322424 2.293186587777117 0 0 -1
186 1 12.637035714103154 2.1627070520555 0.6159476747422417 -2 -1 0
103 1 9.973871481452768 3.0672718164807535 0.1890664869790467 -1 -1 1
248 1 11.564676343865628 18.103359168820532 3.3762848583114518 2 0 2
315 1 10.491027573338615 0.9128337575213641 1.2892859758272706 2 0 0
1 1 13.865532644853518 2.2208322915542644 17.05552655561433 0 -1 -1
227 1 15.464198788791855 0.2800036082534959 3.7656235597999776 -3 0 3
254 1 12.495095335568566 3.2925898150518433 2.8661419910885257 0 1 0
486 1 14.798462455137006 2.76416948326305 3.6417282271047773 0 2 -2
334 1 16.642432565022474 2.76932108475976 2.1406666092550686 -1 -1 1
61 1 14.18835073327482 0.7301533092924972 1.6577183101705728 1 2 1
240 1 17.457048097390363 3.954907087751443 0.396868050126315 -3 1 1
21 1 16.19187298203792 17.890819289737834 0.9906093834026386 -2 -3 -1
267 1 0.8586593067108053 6.298898668379605 -0.09986520471261012 1 -1 -2
297 1 2.312021082029962 8.213681651938726 1.433462113256437 0 1 -1
423 1 1.8688752333571053 6.268779146268278 2.815400355126423 -2 0 0
463 1 4.3709138294786785 7.068361161079648 2.79445410911006 1 1 0
424 1 0.08107245051779688 8.232943744729468 3.2633682820229297 4 -1 1
53 1 3.3773683620463926 8.857855048325026 4.542665356004268 0 1 0
300 1 3.1174111910834 5.2832421784355725 0.9425816872743571 2 3 2
456 1 5.1605210971164155 4.716789507636154 2.9849691785104997 0 1 1
434 1 5.631008586504842 9.013134946210927 3.8058811135357775 -3 0 0
10 1 5.882746045873725 5.54764553639316 0.8902132084981376 -2 -2 0
66 1 5.006188308077639 7.956382454461547 0.42916210235506846 1 3 -1
397 1 6.691412068546306 7.092176379070496 2.521847745571515 1 1 2
161 1 8.084535395917703 6.689469400742183 0.5918821654558557 0 0 -2
193 1 7.621743580077995 9.56295073134038 2.6999719335226455 1 2 2
485 1 8.98922911923982 6.011621137027863 2.999236612027363 -1 4 -3
351 1 7.180827654633418 5.373040967786557 4.652992336600875 0 0 2
348 1 13.63934522530732 4.563264185377252 5.331619999481781 -2 2 1
430 1 12.504193543887672 4.662643592846956 0.5513171724602824 0 2 0
100 1 12.459973327586892 7.748545861111767 0.626075792893729 -1 3 -1
345 1 10.34170810037599 6.000334048429222 0.5935178500743519 2 1 1
316 1 11.970031582060287 6.2276017985386805 2.876115091906818 3 -1 0
44 1 9.839015676625195 7.948306970771169 1.9244240214786061 1 4 -1
429 1 15.077441295473845 3.773499420785808 -0.1686974782863397 2 -2 1
27 1 17.107633410233568 4.660668287134586 3.51645851443338 1 -1 -2
283 1 -0.12436110289455149 5.36254933630984 1.7499555136094833 1 1 0
185 1 14.286045228859214 4.932974593162287 2.1919938114365674 0 -1 0
26 1 16.492913643604915 5.838072513601192 1.4569293035970896 0 -3 -3
40 1 14.613279649956462 6.136897222322145 0.08597940253333969 -3 1 1
251 1 17.609900052439507 7.867123395678902 0.5889112781151042 0 -1 1
404 1 13.943933706648556 7.524506728731378 2.397487621845273 -2 -3 -1
135 1 15.218261626238675 6.173434835009438 4.274676564864727 -2 -1 -2
307 1 0.9053057352399119 12.409403638015347 4.437323067138312 3 0 1
453 1 2.078992696097069 11.107670388772489 0.06615710369152344 2 0 1
109 1 4.0011365530372 10.150144700085598 1.5388212869896971 2 -2 2
15 1 0.7125779645454895 9.298420588559011 0.0882027529250281 0 0 2
460 1 18.060487379519287 10.537745775278543 2.0158951828390115 1 -1 -1
432 1 0.39983454821809605 12.378212502113625 1.3428834935920178 0 -2 1
126 1 1.958650695482833 10.662552553553468 2.4179315983646923 -1 -1 -3
261 1 8.097933219044537 9.186911398230238 0.1166667481299668 -2 -3 -1
449 1 3.8985315789930315 12.533780623383022 2.2144984417978977 1 0 -3
221 1 6.1479311833023536 10.638472233565398 1.1220912715931621 -2 1 1
4 1 6.243403509645454 12.002488206436565 3.191199097278 -4 -3 -3
293 1 7.690112075834991 11.419083157222627 17.597930244255423 -2 2 2
268 1 4.324961700432381 12.356208489477538 -0.177334446397797 3 1 -1
208 1 6.445847237752868 13.102935865941951 0.9236229132247777 0 1 -2
72 1 8.596418850301562 11.490806435028606 1.1839666752438782 -1 0 1
97 1 5.659409280221558 14.182140316749383 3.218659480307011 -1 -1 -4
7 1 12.035054304767502 8.795028790569523 3.3785893201812183 -1 1 -5
422 1 10.935841247896285 11.956661682672156 2.3393409305652044 1 4 2
19 1 11.01292165549093 9.783494219502572 1.1698813210363719 -2 -1 2
115 1 9.818219776768782 10.044783856971097 3.2368165941949725 -1 -2 -1
57 1 10.111707453928064 10.95681438234737 18.025888324243454 -2 3 1
175 1 12.982855211669136 12.795715168615914 1.5784665292742208 -2 2 1
152 1 12.765171742038882 11.51070107604752 3.782953830152036 -3 0 -1
65 1 13.437778297969407 10.236065285019706 1.8719117200225255 1 0 2
281 1 14.757643871797184 8.950249970601554 0.47251919827447797 2 -4 -2
209 1 16.237345912297776 7.8943735962733825 2.5177804755749174 -1 -1 1
406 1 16.457566653581793 12.784213638514897 0.806058371063574 -1 2 0
484 1 15.606529005217348 10.245797338083781 2.5312340203332537 0 1 -4
287 1 17.52542067821149 12.201584683498234 3.4345408784335216 0 -1 1
490 1 16.810828223445363 10.025119797147676 -0.011335355008709413 -1 -1 2
42 1 2.521547678867644 13.690695194422588 -0.005210585015629432 -2 0 2
325 1 -0.35138995817257523 16.510143797114644 1.6533813835538358 -3 1 2
476 1 1.2864998636621636 18.13035876263976 2.7034451084190785 1 0 4
167 1 2.0658082356533396 15.852340790401703 1.2799778584443386 1 -1 0
214 1 1.3435568107620497 15.790405540381668 3.60227844356095 -1 1 1
428 1 18.181291845193144 14.377788218081633 2.823531711382011 0 -1 1
87 1 17.305043834795676 16.797365104290513 4.021737063411479 0 0 0
265 1 0.23387163312680048 14.527565578926929 -0.09300639442911979 -3 -1 0
28 1 2.056906624430483 13.673474642018077 2.4087499345218575 -3 -1 0
500 1 8.923771239611556 17.673835245743057 3.429249977347735 3 3 0
331 1 7.967316007896864 14.188434114082794 18.041860055213917 0 -2 -1
465 1 3.744224854838053 15.045291967593178 3.9732766195163682 2 -2 -1
262 1 3.715562023880107 17.312379538249353 1.9797800542692596 1 -2 -3
442 1 8.721670642566925 17.518738127654764 1.073171544332075 2 -1 -2
471 1 8.206995569532905 15.086188839605015 1.6789400854075809 3 -2 1
403 1 6.614999308982886 16.54576959658589 2.9329433938633915 1 -1 2
444 1 8.673713553875414 15.522203015988284 4.5324201499776375 1 0 2
86 1 4.272957694600917 14.886743087995582 1.4319099423969994 2 0 2
45 1 11.487089793194261 13.973699216364684 3.4210333874313292 0 -1 1
235 1 9.08367034253127 13.703957348682666 3.1743852254114686 0 -1 -2
166 1 10.19834261524999 15.953651883488218 -0.33363574393916196 -1 2 -2
298 1 10.428938113214135 15.765346510014245 2.165414282946861 1 0 1
3 1 10.029559085964802 13.450018113073888 0.4056755905942452 -1 1 -2
169 1 12.204468451221643 17.951264214181656 0.8545442793906057 -1 0 1
22 1 15.060003105064531 12.810445337982934 2.7327223674250005 -2 0 -1
322 1 13.5589060418842 14.945075368809198 2.52875537603445 -1 -1 0
155 1 12.518235698627926 15.153277447785989 0.6840288053758783 0 0 1
278 1 16.04503459226767 14.921896931614738 1.9408344370382702 1 -3 1
96 1 14.899442397127594 16.65475025017725 3.378734925443849 -1 -3 0
305 1 14.478024153138744 16.453551782389283 0.33824971666785 0 1 0
90 1 13.679033130712025 13.635811505984096 4.508943227899689 0 -3 0
123 1 1.8213541546162118 1.7324765075669268 4.044247856303934 0 -2 1
395 1 2.589719320375222 3.4643463150047817 6.098027181118793 0 2 2
259 1 0.06682576408231589 3.136805461766881 6.183229916897915 2 -2 4
172 1 0.03663096597199672 0.8338744827910665 4.998165854680018 1 3 2
79 1 3.3512571765080184 0.86430498417965 5.721034798417314 -1 1 -1
282 1 1.5497801957069761 1.001588961448482 7.0271130332252865 -1 3 0
398 1 1.3910225407576406 3.112702542746486 8.008145982086665 3 -2 1
183 1 3.7548624795912957 2.4735147731813667 8.171591112676165 1 0 -1
39 1 6.045928172766844 0.37690538971094756 4.488144377860959 -1 -5 -1
157 1 5.513214876231792 2.1601358195820155 6.5087818282605046 0 -2 0
260 1 5.642745812343463 3.924436356340741 8.24130453500093 0 -2 0
379 1 7.710758476865994 3.5410714324009156 6.954551338112779 0 1 3
436 1 7.704793914770022 6.173608335113484 6.792333950524374 0 -2 0
279 1 8.921804426028336 0.6334928709027907 5.012892899534429 2 3 0
224 1 9.574059898054097 -0.18823310993190928 7.080152136903275 -2 -1 3
94 1 9.809156214342151 2.3548388860293095 6.411687504044478 -2 0 3
145 1 12.199300320816791 3.036170178914643 6.624592025887139 -1 -1 1
249 1 13.075626378800184 1.2049268442796188 3.7605718837703863 -2 1 -4
419 1 11.973308501639162 -0.4081311153812449 8.697446232094036 -1 2 -1
5 1 9.956781914633867 4.667818514490501 7.222856737001888 -5 -3 2
311 1 8.752805627709996 3.5003165264795366 4.304675805730685 -1 -2 2
392 1 11.20168484364183 4.254757833408193 4.874266109893748 2 -3 1
80 1 11.644177000542474 0.6699618435938495 5.8360928023197065 -1 -1 1
326 1 16.856906317689685 2.5278010805702578 4.690688473115252 -3 0 0
294 1 14.45127979208743 1.6342282361924338 6.002147737486027 0 0 0
271 1 17.17902367312407 1.3762090833998226 7.030142092115614 -3 2 2
69 1 -0.17202814689938462 0.19683674610200075 8.87318378635229 0 1 0
454 1 17.094936367102186 4.07734776185907 8.061015940845637 -3 1 4
207 1 14.172708256802473 0.2619019129714151 7.747910945983687 0 -1 0
36 1 14.495216890195115 3.6824761933580836 7.841571347170973 -2 4 0
182 1 3.409567444938838 4.762623467703712 8.150585474918827 1 -2 2
358 1 3.4989734638195724 5.6878717477102665 4.866395617711115 0 3 -1
409 1 1.0646370770488578 5.36452103949944 6.514599724086105 2 -3 1
89 1 0.8092833883230286 4.366340283276687 4.184110133746013 -1 2 -3
410 1 3.15141973766176 7.101313856180318 7.092318786845725 -1 2 3
247 1 0.732678534692716 7.391009350885366 8.037497069910682 -1 1 -2
323 1 1.4346586743988674 6.981138096269766 5.020465428939162 1 -1 0
2 1 5.5295270614544 7.2411249305766905 5.268436623510172 -1 1 1
111 1 4.0605871326934215 9.061875332548041 8.837278926377255 -1 3 0
400 1 5.26749567724084 4.810464640938144 6.123037955571394 0 0 0
274 1 5.5342873972626885 7.109475688865304 7.905015385471524 3 1 1
343 1 7.321966257870703 4.944850665815361 9.299598614987199 1 2 -2
122 1 6.965775127274916 8.865142269855516 7.488587767303561 -2 -1 2
17 1 4.7376589987961 8.949060487885623 6.4733527519212775 1 1 1
491 1 9.346756056942679 5.685635344969703 5.3222928583441185 2 0 -1
394 1 8.640638352362554 6.722850783565405 8.96755737189267 -1 2 -1
433 1 7.936448462753635 7.883521284394412 4.591925280069885 1 1 2
346 1 11.814833473440794 4.335552116282473 8.946209956873734 3 2 0
156 1 10.298200902992594 7.657831940317754 4.245914256574736 -2 -2 3
165 1 11.899692117171575 6.160830245687678 6.216946935325551 -4 -2 1
467 1 14.561035983834728 6.489094374767913 6.782955447495448 -1 -2 -4
95 1 12.197906481939953 8.814894471665852 7.306930123150096 3 -1 2
360 1 13.305998948683209 7.608576659254936 5.060430429828556 -1 1 0
110 1 9.994549731147746 7.616771841334925 6.643634210884176 -1 0 -1
440 1 17.774086649144657 6.3445050221580015 4.790543331746279 1 0 2
302 1 17.473107642904573 6.290121528185915 7.1357247211940305 1 -3 1
411 1 15.906869207546452 4.663416511130967 5.8874504460511945 0 0 -2
383 1 -0.34851075885246274 8.463572938139142 5.819490987576987 1 2 0
142 1 15.913797570475724 7.960295975023005 5.729322048870525 0 2 -1
381 1 15.569297771959802 5.942770315426172 8.892879178566847 -2 0 0
407 1 1.1291079557545625 9.899825009903964 4.46812940892562 1 -3 -1
29 1 2.1408799438207575 9.098868910136884 6.690308860171707 1 -2 1
52 1 1.6841599196200132 11.877401999150262 8.474524378919355 1 0 1
230 1 3.046946919260774 12.822088128065772 5.005923652795077 2 -6 5
481 1 3.4678506093030816 13.461311824040576 7.823522565057857 3 -1 1
138 1 0.8028896486507389 13.209178932883406 6.920420535933316 0 0 0
192 1 4.4104367102499955 11.024654005101214 4.17210301907196 -1 2 0
60 1 4.229981164932474 11.130759026868239 6.9541707595507525 -2 -2 0
497 1 0.5742132487939126 10.882585364274759 6.295713029506512 2 2 -1
18 1 7.868070848143979 12.458624783738635 4.890481943663591 -1 -2 1
391 1 6.724285662540819 12.508009825162889 6.973054766188331 1 3 0
49 1 6.362210507053224 10.521266616333959 5.919819713263388 2 0 -2
327 1 5.034283676867541 13.690360712671808 5.82871905281201 -1 -3 2
16 1 9.1152852722285 10.262030412309253 5.746122004439299 0 0 -1
212 1 9.321022917165244 12.502581871359945 6.93986560306694 0 0 1
154 1 8.07235649599158 10.932186506002177 8.034277276120545 0 -2 0
144 1 5.82170978161407 10.50883284604332 8.811289959689637 2 1 0
443 1 10.806434714509775 10.757062630015914 7.463083461031316 1 1 0
328 1 11.654163126305484 9.933211193379222 5.350972072415874 0 -1 -1
487 1 10.273409463095922 11.972610539421819 4.572855495673001 2 1 1
201 1 12.194862093715724 9.766767889957642 9.345742464541852 4 -3 1
234 1 13.092534023942271 11.69810990761207 6.571960251464149 0 -1 0
117 1 12.773507314944954 12.059539682836139 8.905343903461556 2 4 -2
382 1 16.528736770648045 8.653931149316888 7.966961936344422 0 0 -1
280 1 14.576973386894023 9.278940375489388 4.29063036906195 0 -1 0
258 1 14.332119149733648 9.511978238549137 6.7734429828434015 -3 2 -2
55 1 17.304484203143673 12.844337248019087 5.8266769647122665 -3 0 -1
306 1 17.253904931761227 10.102769613184991 4.432589545723582 1 -3 0
362 1 16.743209540159064 10.575850737473067 6.74570028340441 0 -1 -1
119 1 17.538205472826505 12.468313180702092 8.374909660269406 1 -2 3
205 1 15.244442138885773 11.509494188940188 4.8376996566650545 -2 0 0
314 1 15.163383295472341 11.359638255592516 8.268904849024972 -1 -2 0
73 1 14.385380498812221 13.837929967883346 9.076185908819262 -1 1 -1
71 1 2.072070336789567 17.418334120981832 7.362578622411619 -2 2 0
225 1 -0.3535256331448974 15.074992647158709 5.31108437101542 5 2 0
431 1 1.8827376761212204 17.611012778228144 5.078435413118871 -2 -2 -2
124 1 4.191046034986687 15.927015628034207 6.420297428130661 2 -2 1
50 1 1.3055323355071244 15.295167306994662 8.211414816406492 1 -3 2
388 1 2.2084608700973085 14.888960193986254 6.079524241765325 2 2 0
113 1 4.736160584583539 17.18466609484281 4.484335756642853 1 -1 0
153 1 18.219644504594132 17.90410921254751 6.727532986586217 1 1 -1
273 1 5.098742026886718 -0.37079144171228295 6.557595247550355 -1 0 -1
59 1 7.4469945085861164 17.610425596484554 6.17812994704036 2 0 1
284 1 3.822988708003134 -0.12307127232104476 8.761694965408367 2 0 -1
475 1 6.367573385795672 15.673190174561421 5.511509596750019 1 -1 1
256 1 5.727197282995913 14.626111797333557 7.860890623416923 1 0 1
317 1 7.978091993665332 14.513350260320601 6.832584237045137 -1 -2 -3
252 1 5.708991726014558 17.078612852115725 8.626064954363258 -2 -1 -1
75 1 7.966825087957503 15.885291444421396 8.877623022390313 -1 -2 0
492 1 10.589195585299882 16.737429087129797 5.3136364970970345 1 1 -2
292 1 12.55397893998464 16.084656376388246 4.418481561606238 0 1 -3
313 1 12.712960779053866 14.236915508845872 7.1323272960023525 1 0 1
211 1 9.878078939076653 15.64499945053379 7.55934131319386 2 0 -2
295 1 11.017224821389913 14.223158759307479 5.662508742578853 0 1 3
288 1 12.313033530096225 16.778233756497976 7.00421779316823 -1 1 0
163 1 10.822913864348076 13.256689218536067 8.515528241571774 0 0 2
81 1 13.595373314053205 18.017415040987494 5.095675454109961 1 1 -1
140 1 16.0561774144715 18.076744676645134 5.842462978553663 -3 -4 1
417 1 14.451814242047513 16.145927075489062 8.128275957234797 2 -2 2
176 1 16.89968762529127 15.923046345465883 7.049179397843057 0 -1 -3
269 1 14.424992577735473 15.708865626164263 5.87523366121789 1 -1 0
489 1 16.142544032087073 14.5003526494124 4.373886804416019 -1 0 0
131 1 15.195205203600645 13.60618252029541 6.905927849897509 -2 1 1
380 1 16.347108910816303 17.923383189723445 8.51446950217378 -1 0 -1
352 1 2.191994162216997 1.6399060942066903 9.73270789348643 2 -4 0
373 1 17.81895982439947 0.8137132146436641 11.079584147822152 -2 1 1
464 1 1.3062619101263695 2.7246050541502265 11.917649995862103 0 2 2
438 1 4.007125224428556 1.1548254540349963 13.373404713946211 2 1 -1
466 1 17.82587648690265 2.8840147261144784 12.31904318570382 -2 2 -1
195 1 -0.2821090476231274 2.8687996876851045 9.78681131972007 2 0 1
84 1 3.9859968526477676 2.4534597689647577 10.862033230518454 2 1 0
412 1 3.601729094593874 3.876492507821112 12.74602665472181 2 -1 -4
237 1 1.8003611870782117 0.24303579838550937 12.14892544313243 0 -1 1
386 1 7.779387443496468 2.3290025219949517 9.228331804421924 1 1 0
141 1 4.146790230806317 0.30317860399992513 11.023228867381164 3 2 -1
462 1 6.522236816488001 1.0382775096711112 11.487091662667424 0 0 0
178 1 5.629136703083441 1.1756950715711016 9.420976577762788 0 3 -2
405 1 6.304948546949173 3.4191944197448967 11.468558151971354 -1 -2 2
435 1 7.670075533908477 -0.11668938624882236 9.416616899778479 -2 0 2
289 1 5.78102537249115 2.8060891511903674 13.711348279811872 0 1 0
168 1 8.794216164084107 2.4286107570244946 11.376776306072964 0 -1 0
134 1 8.590175102675353 -0.016629754308362443 12.047951298872533 0 -1 0
51 1 13.107024310962125 2.204833887710299 9.291484179630924 1 1 2
171 1 9.966774161049306 1.8046089701082377 8.605929836522906 3 1 -1
244 1 11.488510548705376 0.4742329614638813 12.855764347771862 -1 3 -1
457 1 11.225495524309473 3.1303195161702004 10.873947261432956 -1 4 0
20 1 10.323537508712176 0.6145101807426268 10.682391018516954 1 2 0
474 1 10.175249003894312 2.5142499533945073 13.237949835159665 0 -2 -2
68 1 12.39131328025271 3.781124045802951 12.934343751261164 0 2 -2
479 1 15.431590072466221 1.8359687749965676 9.43427300482172 0 -1 -1
296 1 13.245726376693241 0.6978853038498147 11.161036860897982 -1 -1 2
387 1 16.277396953215842 3.6967852684145344 10.563129437673304 -1 0 -1
137 1 15.676168909284486 0.7056983217586981 11.9589997842023 -1 0 -1
299 1 14.51672004082499 3.012824991308873 11.715576459721744 -1 -1 -1
107 1 17.900495124643683 0.2327437062235499 13.316915247111215 1 3 -1
340 1 13.546956507287966 1.2487984875541087 13.498848313827702 3 -2 0
32 1 14.131818899004431 4.880112435301731 10.456650451462771 0 0 -1
447 1 14.234179620184033 17.737442481177204 9.920282543764772 2 -2 0
191 1 2.1913542757672175 4.456438289009222 10.347302040113684 2 2 2
150 1 2.894075742518521 6.71036426838822 9.431634510332593 -2 -3 2
241 1 1.1195695182608758 7.42754473555493 10.69948173378363 -2 0 1
321 1 1.6389106254711021 9.678972966585775 12.497565769272542 0 -1 3
364 1 1.7145506874103122 7.243340972315698 13.009145114914569 -1 -5 -2
125 1 3.4720657355808067 6.207160402350548 11.99142381174182 -3 3 2
210 1 3.3641484066284697 8.541048643942414 11.433654124281942 1 0 0
139 1 7.512647388337382 8.559950516615688 9.926880397947045 -1 0 2
56 1 4.665131657782249 4.668440685176781 10.417592045586892 2 2 0
37 1 5.142493202490078 7.414122525655072 10.701337200858765 -2 3 1
128 1 4.723526289375225 7.992197726851794 13.213269889203236 1 3 -1
31 1 7.639658169934812 5.775357493219492 11.39728709176448 0 1 -2
439 1 5.712983926135489 5.6453389842727555 12.792664872275802 1 -2 -1
129 1 7.899558159007974 4.029165348221573 13.519896800070518 2 -1 1
367 1 7.126127063909784 7.96528259918672 12.121516347535758 0 0 0
231 1 13.378587316884106 6.941818565120575 8.743051226650769 -4 2 1
335 1 11.359282076678483 5.720359728036701 10.815881335185626 1 0 -1
285 1 9.49981176213206 4.32474458138359 9.56873072721559 -1 0 1
34 1 11.146395390453062 7.229403019530102 8.811289836993835 0 1 2
499 1 9.382474390648072 7.24689662507589 11.357322466556125 -1 -2 2
43 1 9.593912581247828 4.688772881015668 11.9843792436288 1 1 -1
189 1 11.711424388720042 8.291033863718422 11.064701658049845 -2 0 2
478 1 10.423435401146957 8.596150781036734 13.145394382528462 -2 1 2
385 1 11.25116605486351 6.2986525979336045 13.161604208351163 1 2 -1
320 1 18.21804132841752 5.0499985823039895 10.958700117737633 -2 -1 -2
452 1 18.045052498213607 7.008223713319789 12.646169961111104 -1 -1 -2
11 1 0.4204681095577001 5.26731629275417 8.820734231136171 2 0 -1
108 1 14.150494881389871 5.752625499772432 12.894870765931255 -1 -3 -4
414 1 17.426045972339466 7.3596148908808985 9.67509439379054 -2 -1 1
347 1 16.06011645578473 5.979702445040666 11.315783377404358 1 -1 0
420 1 13.630294428790297 7.1450467096025205 11.085010758829126 1 0 1
370 1 -0.18424211552225667 10.065358549129101 8.554172490298237 -1 -2 2
488 1 3.6812683655025253 11.467539383483789 10.074379225500035 1 2 0
146 1 1.7924631435033649 9.61055213965446 9.947176532502622 0 0 0
174 1 2.2167166542675054 12.034700408740507 11.897031052547842 0 0 -3
344 1 0.260051575914522 11.589002507744437 10.801328470406434 2 0 -1
361 1 18.090292663549775 9.137047517405621 11.68089223269654 -2 -2 0
266 1 2.514620128728863 13.755888234679613 9.95201309372201 1 -1 2
85 1 5.312035244982804 12.35591321369646 11.90244211797445 2 -2 -1
232 1 8.943713812216147 9.720824619670813 11.479442081743205 -2 1 -2
194 1 7.239061436295907 11.38454849433881 10.405150680530406 -1 0 -1
378 1 7.570398920860092 11.31483065414767 12.865693487831011 0 -5 0
372 1 8.041813919137256 13.207410171762312 9.0341607575633 -2 -1 -2
312 1 5.638605975404625 9.6287257004769 11.127931801397844 1 1 -2
46 1 5.570887872213992 12.867386398068293 9.41772118698337 -2 -2 -2
25 1 10.011122358756298 11.396348766262356 9.693768089400091 0 0 -2
365 1 10.017806836215982 12.774410478918224 12.196150868032387 3 0 -2
92 1 11.435042538927297 10.716765805866476 11.617472575567062 0 -1 -1
226 1 9.46719898539556 9.104659159017071 8.787404757972036 1 -1 0
242 1 11.94293742803136 13.758830801549331 10.767184039740144 0 2 -2
102 1 13.544490284228498 9.73627902029839 12.542027618944491 -1 -3 -1
177 1 12.300686944467046 12.90554971939624 13.02793759749944 1 1 0
202 1 13.599559102977024 11.576866251498345 13.903872683047547 -1 0 3
13 1 14.090799384214835 11.167323539058035 10.454748498127833 0 1 -1
179 1 15.71036475032169 8.2428116512326 11.644657895985821 -3 1 1
318 1 14.57370115216846 8.940930497260045 9.48080987831202 -1 2 0
333 1 16.440328113311608 10.183398649252231 10.041745019710554 0 -4 -1
198 1 15.643553146891216 10.932389972199083 12.540880080957445 -2 0 1
389 1 16.83754610344898 12.739474093175629 10.873334686095223 -1 2 -2
6 1 18.250842097251557 11.556414758475835 13.090637522902668 -1 -1 0
200 1 14.381743183000614 13.319418134327485 12.059056162249512 -2 -1 -1
222 1 18.26187446687063 16.36239767229641 9.171373197006934 1 -1 -3
14 1 4.226179032977806 17.46491552823109 14.205393184239686 0 2 0
257 1 1.9143249368766533 17.70905151338262 9.958176346740453 1 -4 0
162 1 3.472509190054906 14.014823396082395 12.424064000869622 -3 3 1
121 1 0.12548358199559073 13.74627179174268 9.739175041075292 -2 1 -2
455 1 3.610802576674063 15.873716358612244 8.977001363208283 0 -2 0
47 1 1.3294094797741727 15.555541610555299 10.79662969800056 2 -3 -1
496 1 3.686625172066467 16.312889706757908 11.571517942867693 2 1 3
173 1 1.8661481633220172 16.203068623733806 13.070674432134398 0 -1 2
63 1 0.006597808494969826 17.045637791477375 11.736260776628857 2 -1 -1
369 1 0.15754944124811 13.725692610912544 12.272006008826045 0 0 -1
319 1 7.452566303842644 0.9981893361423082 7.070951094834411 2 5 2
219 1 5.379028248146571 14.957879984600867 10.416526204118673 -1 -1 2
33 1 6.182855679080221 17.32450844645126 11.155098507108251 -2 -1 3
366 1 8.144149108852133 16.215103145775295 11.090661010651768 1 1 0
324 1 5.943120051149637 15.13100762134641 12.910179482075534 1 0 -1
472 1 7.394376887531551 13.585668235070237 11.550109841250373 2 0 -1
337 1 8.469885841150639 15.066520831764402 13.172913461235588 -2 0 -1
24 1 6.683038593896302 13.22332374347482 14.166042502192992 -1 -1 -1
114 1 10.00947694804796 16.816943024251174 9.636608641597336 0 -2 1
112 1 9.48164297131204 14.511132277829022 10.035009814693867 0 2 0
184 1 12.342880769227799 15.420430217154912 9.146150180591231 -1 -1 1
498 1 10.34193462736347 16.82250276925069 12.22248830286118 0 0 1
187 1 14.010474272781863 16.22999074609919 14.60108119046988 0 -3 1
159 1 12.101870105181405 17.414744718293676 10.938802816262626 1 0 1
229 1 12.747499712137847 15.385241089914203 12.620569717820787 0 -1 2
12 1 16.49438964511976 14.674526660735983 8.98059956615169 -3 1 -2
236 1 14.014815404890069 17.557170635703976 12.560949341182253 -1 1 1
220 1 16.57151455185327 13.575021661335015 13.364045788314755 0 -1 -1
350 1 14.5113736719427 15.327372103759652 10.971714439053459 0 0 -2
253 1 17.310463213741407 15.09622777148244 11.384165946177482 -1 0 2
83 1 15.91124358658603 16.01522375663005 13.054957366886777 -1 -1 -2
148 1 16.3233799999691 17.278324530858292 10.709914233374493 0 -1 0
98 1 14.576431077955721 13.778423391629005 14.525125940702951 2 -1 0
164 1 2.9927561888443988 1.6545084734037472 17.87553792290621 2 0 -1
30 1 1.5459428404255078 2.779480323919777 16.38963578332882 0 1 2
363 1 3.160696265072844 0.793225916105186 15.626300219984897 3 -1 -3
376 1 1.6490524549805898 1.9020301636265682 14.158447551681538 0 0 -3
329 1 3.8741907592273943 2.939021751401807 15.319688028326475 -2 2 -3
196 1 1.3288904346806245 0.18955547283875984 16.762980706550117 1 1 -1
437 1 2.840237316546178 4.114383687375001 17.49854679203036 -2 0 -2
393 1 0.9867087136846959 4.970708406561661 12.666406770022881 2 2 0
349 1 5.486054207157704 1.000351537019125 15.201761339488726 -2 3 -1
149 1 5.230627018871928 2.0783035258962466 17.601470659644143 -2 -2 1
309 1 7.816989089314758 1.5736049707030841 13.661335012080702 -2 1 -2
106 1 7.240780285972469 2.6713806018865855 15.934203198448282 -2 1 -2
250 1 6.535015266403637 -0.16410366034955537 18.297699270083847 -3 -2 -2
58 1 6.027540198449893 4.3914608364988545 17.383975591370294 1 -1 3
458 1 7.545455323579287 0.1439548095178943 15.835484273873478 0 3 -1
483 1 8.73673910395177 0.4661913007689683 17.772157519288406 3 1 1
408 1 11.299395721340874 1.0873963253325272 17.84276083552931 -2 0 0
377 1 9.888563328877698 0.20586786323462758 14.594593895315112 2 4 2
446 1 9.440045417158702 2.2593171495639512 16.112848554577162 0 1 -2
216 1 11.994206543458999 1.9921485950195819 14.91893401784367 3 -2 2
359 1 11.683361674793458 3.608117551613492 17.15156739206094 2 0 0
105 1 -0.16202646647584468 2.2399671619296795 17.674954197477284 1 0 1
374 1 16.134118798054537 2.0460574203121484 13.894617247910238 2 0 3
127 1 15.813056965526906 0.989749723822617 16.412566894170006 2 1 1
468 1 16.382781772913 3.257052470847011 16.515613861725207 -1 1 -1
217 1 18.186361405964988 1.3107282151211392 15.517288065045035 -2 -2 1
213 1 16.394381169822005 1.220266419300668 0.15617620542217392 -3 1 2
445 1 -0.33339431456773383 3.470154071429614 14.445547261263638 0 -1 -1
120 1 14.316277691199545 3.4089631740390325 14.331842635127419 0 -4 0
459 1 2.96396799978776 8.636087386396548 17.37148043450287 3 0 3
93 1 0.2799760037750796 8.490782989996216 14.628766302029238 -1 4 1
461 1 1.9587484593585094 4.4221193105754315 14.748427477481872 0 1 -1
341 1 -0.052429106668522296 4.738136675792428 16.841257369654755 -1 0 -1
203 1 3.6681163304020066 6.105710607923498 14.551606468980156 4 0 -2
308 1 1.6466992421799533 6.615856270195447 15.905797857505954 1 1 2
130 1 2.6925404013191314 9.047103417798528 14.823309071357524 -2 0 -1
239 1 4.157463039748385 6.241548142951935 17.67921695151432 -2 -2 1
233 1 5.8971705580179465 4.739340605898421 15.05762073502051 0 2 1
238 1 6.593536347321522 7.069291641583196 17.50968734240891 -3 0 1
170 1 8.165432875041404 5.357364499973995 15.821970588046872 1 1 0
190 1 8.637594155498409 7.655034846278559 15.926206515167694 3 4 -3
451 1 6.662041924885682 7.422871008718415 14.757372710472087 3 1 1
8 1 4.838569728785229 8.283583159374228 15.736655786005057 -1 -1 0
206 1 10.12281716048889 8.144550539176914 17.77266621778496 -1 2 0
413 1 10.09585639678599 5.76796596898853 16.826349259897533 1 -2 2
158 1 8.93495874210205 6.448439127204881 13.772332914662885 -2 -2 1
82 1 12.813332041894787 5.31481867575998 14.776930819767278 -4 0 -2
263 1 12.279810092610399 6.159128807778707 17.563029587858892 1 -2 -2
355 1 10.65557946314713 4.265964649714717 14.812456187631952 0 2 1
48 1 13.66521131888193 7.6391406637118155 16.109665931243768 -1 -2 1
310 1 11.18764571362857 7.652357543810277 15.613473987809007 0 1 -1
77 1 13.44148139093101 7.677604447148138 13.614058052042397 -1 -2 -1
415 1 16.365155598280722 4.469464508833754 13.330230364058645 -3 -2 3
54 1 13.980191227512865 4.648123339443808 16.511736738636394 -3 2 0
67 1 -0.3284122804200046 8.027245846552386 16.904898040803964 2 2 2
118 1 16.929459952003697 6.038198430265843 17.992933427345115 1 0 -1
396 1 18.19028556326778 5.930994080498481 14.726022479990169 2 0 0
357 1 15.85941849367259 5.664543366799271 15.737930098637035 1 0 -1
204 1 16.14148760853425 7.54937670066422 14.187661287084602 -3 2 -2
418 1 16.19063023400504 8.036799709281379 17.002820993579206 0 1 1
426 1 -0.20756094151737295 11.560069444332205 17.92818468731489 0 0 -1
160 1 1.9779600403660278 11.57598773268561 14.23910629594489 2 -3 0
416 1 3.446531720811704 11.20582858690917 16.47346240688279 3 -1 2
74 1 1.194905908901785 10.32042588388036 16.40154788220724 -1 -2 0
9 1 1.8538985509850616 13.03317317528986 16.652126556539578 -4 1 -3
427 1 -0.17779177433432833 12.537782285629776 15.511829798382696 3 0 0
88 1 5.538746885496616 10.209131181928383 17.418178717738492 -2 1 -2
133 1 7.239484209835398 9.500908555593858 16.12715520337806 -4 1 -2
101 1 3.8404077153623772 10.58341272281982 12.961492526017024 -1 1 -2
35 1 8.115516910864166 11.589772314939179 15.265282713535603 -1 0 1
188 1 4.129016532099959 12.84227371512511 14.254847460569836 2 -4 0
132 1 5.419715254866701 10.419156302598251 14.579291411392227 -1 0 0
399 1 8.199456203814776 9.069815042005557 14.106981806784079 0 1 0
470 1 5.658164671596993 12.605269147931462 16.080446447809663 0 2 1
450 1 5.676414656006743 14.910988974189824 17.88538723389432 1 1 -1
384 1 9.486265626866254 13.041444213145821 16.580282164028027 1 1 0
480 1 9.810244641086644 10.215058003707082 16.00476415177588 2 -2 1
304 1 10.01729611116014 10.952612117908929 13.87955968362841 3 -2 0
181 1 11.60433215358087 11.967462824322421 15.715437862670546 3 -1 -2
338 1 12.19506247203173 9.723418086684676 17.189426952536813 1 -1 3
290 1 12.305500482811532 11.70252924577435 -0.09019850935209694 -1 0 1
286 1 12.04983198139625 9.762542966539437 14.463464606015005 0 4 -3
473 1 15.984385538156038 11.822041856895835 14.833624577870124 -1 2 -1
441 1 15.102385637859431 10.12870096026854 16.687425021713075 0 -1 -2
495 1 17.08995135572129 9.874882803765882 14.105999233734893 1 -1 -1
78 1 14.75388100378573 11.318002785697374 0.30643275102270506 1 1 -2
354 1 14.718180796854357 9.517331814253458 14.529447389228729 0 -2 -1
421 1 17.671075141439367 10.123176007519959 16.267637043319773 0 0 -2
64 1 13.982838609084604 12.088615186702041 16.338776498482638 -1 2 -1
228 1 2.43181231201766 18.181591649798087 0.22274537133694694 3 -2 2
371 1 2.8715086363346245 15.967643476299488 17.781459818519018 0 3 -2
448 1 1.249807624939056 18.0933193003971 14.309402284189796 0 0 -1
264 1 1.7848227942802644 13.952371125879695 14.424481361924393 -2 1 0
147 1 0.766362379428112 16.7942812480798 17.69909617046671 -1 1 -3
339 1 0.10193219415044741 14.930097931090833 16.226576875793548 -1 2 0
215 1 2.106437819165395 16.258193471775932 15.647654967468574 0 -2 0
180 1 4.190478046951004 17.76524984443732 16.888648496649743 0 0 -1
91 1 6.156290545175141 16.55724287937086 0.7595552151105034 2 -4 -2
245 1 7.976816060750064 16.691029258946436 17.4325783176658 1 -3 -2
402 1 4.128049423796418 15.325203808087762 14.438998265700459 -1 0 -2
255 1 3.7547807344044406 14.320793895746746 16.425815281052017 -1 1 3
197 1 7.300461099940547 14.60756557589005 15.843902236860584 3 1 0
375 1 5.764746308142099 16.514310009651027 15.732103828445199 -2 1 -2
223 1 6.771049378874345 17.326874594048846 13.416885161060117 1 1 0
276 1 10.174599344453496 17.619926385614143 16.276006860137926 -1 0 0
38 1 8.391382671846355 16.74842322593951 14.677907729650455 1 0 -1
143 1 13.954074772911326 0.19977068881086224 18.121212301321826 -4 2 2
243 1 14.064508437451499 14.93134936035336 16.81043105202805 0 -2 2
390 1 13.399594083504915 -0.08439229213366406 15.690786256901243 3 -1 -1
353 1 10.286035513176783 15.226586626337083 16.055077271934238 2 0 -2
116 1 10.36671420411713 13.709298635395617 14.32348490484143 -1 0 2
104 1 12.24716056745525 16.920837543619406 17.354169135780595 2 -1 -4
469 1 11.791960430635703 13.647979655021695 17.458730918821516 0 2 -1
303 1 11.56140053970133 17.075750379390108 14.388577163072599 0 0 -1
330 1 12.409740384655688 14.46537553797558 14.865472496835137 2 0 -1
275 1 16.479170740568804 15.25834518499644 18.06866600380451 0 3 -2
494 1 16.04426482576733 13.520157352093205 16.821458389554955 1 0 -2
291 1 -0.3281336467881807 15.502545142459047 13.927641125366188 -1 0 3
401 1 14.503800091511717 13.873440687288129 0.12692735104176456 -4 -2 0
482 1 17.504467044058195 17.812771104708865 17.624037609187233 1 0 1
23 1 16.262736338138986 15.266368868103784 15.345824653964332 1 -3 0
368 1 18.044658672015338 17.33409597918172 15.423895084334026 2 0 3
356 1 15.667376795569721 18.26382525263674 14.32650412338838 1 0 1
277 1 15.30266755732841 17.315972611435654 16.733996695786878 -2 -2 0

Velocities

332 -5.658168082552308 0.05747545538491821 3.5839044749578357
272 -1.0758812278618168 -2.520586105233875 -5.295480550236761
99 -3.403065123374182 2.6714145929502418 1.0937029728631624
218 -1.3805118795066307 0.14495794863812775 -3.0658519531984942
425 1.4802354266564504 0.705157709693256 1.152247458468074
342 -3.1422941224606857 -1.0507190482633864 -9.78975053094558
70 -2.03856968520523 -1.1146098158045255 2.439980937354763
151 4.006329338541258 2.088537165146276 4.472132392610164
270 -6.172261156203491 -0.7403007596402187 -1.3589113038476994
41 3.872247732371782 -3.80260073232097 -1.5558982960224237
76 4.929441610905056 0.7035815880703613 0.12772397744992353
136 0.20675516290500828 0.3581627016239838 -0.34165688533001465
246 8.828267226305867 -0.4267469825190332 -1.34661175743348
493 -0.18836564231887543 -3.556627523581229 -1.0504191080234486
301 1.8241587507812966 1.3407218629656183 -2.9009523797783885
199 3.537372642832235 4.982519323535741 -1.524299814301573
62 3.2836914463208196 4.664481052392171 -0.49628578682106717
336 2.30314362915392 -3.5633547260079808 -3.340438673425929
477 4.564626812933303 2.4249749593731798 3.2071295881378226
186 -3.275266797996863 -2.811659385601338 -1.2754812041588417
103 1.3032290964955113 5.955553287972557 -2.6472818668725417
248 -5.427687002590558 0.6212033144933062 -0.21742533712423429
315 4.475236810975163 -0.7373494611729308 6.019427592742884
1 3.502110168398171 2.7230452400924396 -2.549520523570663
227 -6.036795792904663 -3.9016388503323673 -1.743827332998758
254 -4.3051068196641085 -2.217949961538974 -8.766173846590338
486 4.280054191667903 -4.964405573954384 -2.3247425224496863
334 1.8532349351524164 2.6307361337679005 -1.133383995985384
61 2.6130954429326487 0.6440112431740195 1.1706428763560384
240 -2.300719816078419 6.169403524001029 -5.184254274475327
21 2.1339015858203063 -3.402832454786409 -6.294216298672623
267 -9.576906264002282 -3.116281518403151 2.317877972234451
297 -4.207518940134627 -0.389293422681723 -6.764980319727914
423 -0.8891456847079966 0.5475012345537861 1.420932235536177
463 4.397574387588859 7.820961367230802 -1.1268079298349083
424 1.4931321186106399 -0.20020872818575627 -2.579474891428504
53 0.38085423500204174 -1.3466991812980482 -5.086404167678368
300 2.5656206642517425 5.499867906390002 -3.073246293324349
456 2.241901830010272 2.208230233619795 -7.412290805640142
434 -2.109141598539014 1.400053950852367 -0.7040525065017644
10 -5.6119999547922665 2.340513498713176 1.9747284959796594
66 -0.22912620901583802 2.115190341435196 9.574158509874731
397 1.2562425806644024 1.5675493833683691 -1.9787056271119219
161 5.46158759678259 -4.007329741535435 1.0892594715866981
193 0.07622277524689773 -8.97403418235105 -2.7751836603396542
485 7.93961879930745 -2.1460272864476972 1.892814276501803
351 -2.772406595416807 -1.152080198670513 2.396066991586842
348 1.890610291115084 -2.7264104319745415 2.0842665559417037
430 1.9776291735437557 8.165920105223373 2.0539181073597166
100 -1.7975916476807197 -3.7700257578733085 -0.17425954752152759
345 -2.304349563273695 -0.6685441203742294 -0.034176748942090364
316 0.6486727290351806 -2.450037663958376 1.372139545989707
44 0.6781767375633039 3.0341337293586457 -2.947162464100604
429 0.28300785102510206 -6.9775765998965795 -9.46412511487652
27 3.372672870912101 3.951022931061571 6.0691643657569
283 -2.17693040423832 1.1724973500561868 4.645540258905071
185 -3.9415801092136418 -1.3177817720289795 8.069680214406532
26 -0.22451118961898156 -5.625803774024342 -1.1245766274384048
40 -1.1219820960052391 3.6380940637510273 1.9389342041477164
251 -1.4540861440004214 6.425628687402839 -2.9754612271610346
404 6.66471681499382 5.0801100275580255 -3.758467391289614
135 3.5565216578756513 -5.3513845919127805 -4.65959104764317
307 -0.8077015071207336 2.212919222492503 1.3887886336474558
453 -0.01802080111878993 -0.34036803114609765 1.7612566113569426
109 0.9935356173775657 0.762535402911922 -3.495722711279999
15 -4.93813512607863 -4.769438075703206 6.213188052575258
460 -1.7357982031559231 -4.881485590006785 -7.058963789702219
432 -0.3159315657259823 -2.6246862501750683 1.8313871527895262
126 -0.6965269064704527 -3.00309068220732 -0.16000438319599392
261 -5.83904655010763 2.320268197160549 2.4041800357638543
449 -1.380840030592595 0.8592831763881239 -3.49993881859863
221 0.020798759325671597 0.7136284699865783 2.5006946880809466
4 -0.24644135580411763 0.8873184640165082 3.9534553776830696
293 -1.6038782615308704 -3.1473162652089965 2.923566613184613
268 2.4493130196363557 -1.8297682022941884 1.6321997167514026
208 -0.9953208208092152 4.539621719481008 1.8842099482619767
72 1.5819425123816486 -3.9184124143618284 -4.598909813733723
97 -1.770736986407687 -0.6533178913350729 0.17824589112483774
7 -0.6974579599696005 -0.1037392096501399 0.19548848862562918
422 -5.696636199676213 -0.6237856954313643 1.4761556730271175
19 5.782494391222718 -1.2327614222007837 7.9054931613820445
115 -4.393957851125968 -1.9072337427721349 1.3283912034189433
57 -3.8931092638142264 -2.5984329814174685 -0.5903765793211884
175 -0.17869790845327035 2.5368011984113643 -1.1436391490259734
152 -2.927462595348591 0.9248869023285066 -2.866341881036991
65 6.500272120359632 -3.4125617435696434 -4.147270784216661
281 8.883122918920549 -0.18209971925475113 5.170924910291815
209 3.7170703579935442 -0.9016078659910038 -4.438412761276544
406 1.4658051554234766 -7.491126435525691 0.6662164077917104
484 -1.2321970454435995 6.154232757676199 -1.1936610034240058
287 -1.6238676879153722 -6.765601363143967 -2.939868501025287
490 -1.3087923231413638 -2.295666206395938 -0.27451480925557115
42 -0.5740470438956352 1.9045150517623715 -2.336549919424655
325 4.08926444459003 -2.054540404104264 -5.300142596974161
476 -0.8117694681622369 0.19196292121469732 4.711812984132842
167 3.0419672750923357 -2.07920234610985 -2.8524087538991436
214 -3.327244292542516 -4.551530301059547 5.705752882032035
428 -4.517946259979845 -2.465730054067964 -1.7463562918079716
87 -3.7040433286351306 1.9212654928305781 1.4864252334384902
265 -9.783905124656657 2.5981543721734055 -0.4014480724213729
28 -4.0941172200510865 3.7102132722324757 -6.767132620872726
500 0.8322472681770595 2.8130827857404856 -2.2436784148604665
331 -1.4475475921525682 1.2056478911030268 1.8930650954948238
465 -3.6663038354641273 -0.9112057588642465 -2.0180464408607226
262 2.679550593245874 5.038783196556876 10.29738194711503
442 4.848315928830544 -0.3159695832159075 -3.315351158155005
471 4.746384049099985 -5.182426058385458 3.6328827814387843
403 -1.1866537165606155 0.6879338264104632 -2.885275809086809
444 3.6946770716527495 -0.16640198047479166 -0.032379595939787745
86 -5.181827859519572 5.780117429442726 -2.8628872352652937
45 -2.550472943594098 2.875108247723916 -5.411394402339023
235 3.090014035488102 3.4517286786239585 3.7840587597687763
166 -2.417245658800443 1.0008149587870785 5.246526509166519
298 3.8887626199599947 -6.4289858921154055 1.7656826118183242
3 0.5415436067128281 1.7760291782715003 6.70012645822712
169 0.5405822612964755 4.1866234433416 -7.725416314111146
22 -2.3997283185568627 4.933792585974742 -2.6729453092166118
322 4.190990441378511 2.6620202013946055 7.3551850064024284
155 -0.3659112473598142 -2.6167209538434433 7.18092679661694
278 1.072883473848618 2.784067194184543 -1.9420813272780044
96 -3.6750038851056552 -2.55118277527433 -0.9727283981364895
305 3.6460655395255483 0.7583575036596792 -0.41330730973484897
90 -3.254267721080721 -5.3535045258514975 -0.035328207087612605
123 -4.178579885839118 9.25974440102983 0.6335042286678823
395 -7.3227531626161575 3.8677079540697896 -1.4058924277894302
259 -0.987777254516475 -1.3721408101172006 -2.1058043104183604
172 -6.534216041293062 -6.481552090058031 -4.172318944163715
79 3.926732806310819 -2.585722359098898 0.6280257107724825
282 -2.2567275110148426 0.33512526840265056 0.14148892994983206
398 2.24439037799001 2.0958074723225044 -3.350496109904956
183 0.25924597061342514 -0.14363628661353267 5.063716197534385
39 5.921821318268108 -3.9714977262119806 5.842552863752437
157 2.2473251146100655 -1.8292149243990519 4.269820044240994
260 -2.16735624099201 2.3746702300247504 -3.0617113110971617
379 -5.21985227959126 3.6793025591692574 1.6176218103656874
436 3.050066936907159 -4.354295932594983 -4.189970881332887
279 -0.33829795658352313 -1.8399324911363488 8.103252224456543
224 -7.314221438414882 -1.0023603002427033 0.015612635495858413
94 -6.025377746502258 6.155390956837189 3.878637927214213
145 5.375171712483687 -4.74534281793906 0.7686795318597522
249 5.423634730677977 2.500589502472356 -1.0315603186232516
419 4.785802475304315 -2.5237627530592284 -1.2923665985034143
5 8.111223021505007 -0.5149580224528889 -2.8916231424807632
311 0.8279379426114332 -0.5486671396115803 2.018214451611665
392 -0.7037962083510498 -3.5238372777077456 -5.926210858441615
80 -5.76586284354519 1.045912300145286 -2.326176695198441
326 -3.441813988480502 4.3908852583453655 -3.3760237344153494
294 -2.1962344491782635 5.422534395052574 2.40718327588921
271 -0.9981178548179293 -2.131563872604355 -8.278796507371837
69 -1.7033674941096584 5.816513480143398 3.690094865113126
454 -0.028320144026727907 6.667672008530595 2.64922204480341
207 -1.5121099787550094 -0.7381793422278328 -6.006975549431965
36 -10.036772294487719 -0.019466774799157736 0.35011590879845117
182 -0.7560433106527139 -4.05660765706854 0.723116691984907
358 1.3099101574872483 4.575553205636564 -0.31593256264275676
409 -2.845018521527873 1.1720080651148506 -0.9035358633538279
89 -1.7585499094246133 -5.1282787506130845 1.708486432721319
410 -0.22780150996587592 2.714762425659823 -0.12403577891949527
247 -0.269202646994916 2.71783724741173 -3.7049654372262824
323 -1.122044409623324 1.5011565894152756 -3.9130166321530173
2 -0.49366224787945256 -5.285209470096579 -0.5801846207704596
111 2.4712889082389156 -4.906062190785152 -0.6096351137264562
400 -2.37417279604816 3.6293164613956517 1.46908949914815
274 -2.9484618515620906 7.567941926736203 1.4525801610313316
343 4.235003198312499 10.46197842617192 -0.1032791814271167
122 3.5211471194783077 0.27117390671616326 -3.691764453467119
17 0.33782744198867726 2.7979041086889094 0.5111310026494928
491 5.193253551855361 2.511068309707987 -1.3940350987975731
394 -6.626205902117442 0.795639699702667 -3.970696917179158
433 -2.184553970801939 2.517289533279214 0.7062068999643758
346 -0.41620089297010504 -3.2487601335785055 1.662731575001439
156 -2.7585141296101496 5.429285939390579 7.190697910786669
165 -1.759119543464634 3.3957295720950924 -4.942612797359284
467 -5.3018348611924555 3.867490844334904 4.925644264195216
95 4.2798970290263805 -0.3838344912324368 1.9642750738566581
360 0.0981820264338616 -0.6982981660166533 3.5805247863976084
110 0.6083888292676619 -7.686693478299341 -0.3606228970902646
440 4.063130407200547 1.0755946182820917 -0.7428557631053754
302 -4.045066970730157 0.5448279891565657 -3.3297737989903773
411 -3.6141645019776 6.684102728338854 -5.320597192385011
383 7.662554381285263 -1.510056214829779 -0.8916793021101246
142 1.1932100849812477 -0.6652724611061925 0.16521631299977463
381 -5.947959687980239 -3.400225908281898 -0.5245298666873041
407 -1.099547714510012 0.8879834861292343 -0.7674491426704918
29 -4.155052100512505 -1.296321586261684 3.206526675356109
52 4.554938332572011 0.13244506761359118 -4.630216088823613
230 7.810877592242169 7.849468992422226 -2.6418579524991683
481 -2.6489594560410814 -1.3187733810758406 -3.3667483879163704
138 -1.039541294823541 -4.120305811770112 -1.8491723945455592
192 2.413679629503843 5.070508301706738 9.094532936145933
60 3.219014669610333 -3.388880385993946 3.5828707209621435
497 -3.965750145502708 -2.7413156661323623 -4.364529893329671
18 -9.252327397791863 -6.812357227187878 2.914053068369919
391 -9.440888214081838 0.5794782991596776 0.25518009879494286
49 1.8938719837843387 -1.6981459738536424 0.08967086336226565
327 3.4099966467118 -2.9971353361089705 -1.4277590029021106
16 -1.6257784060887241 -1.2265770119469497 -2.57150914989346
212 -5.602211233260775 -4.343205793577653 -2.8674576882984333
154 -3.7661826053244716 4.501424295189084 3.3935569703805006
144 -2.616780628154775 8.134124428134468 0.13788382702365334
443 0.02816070464755401 1.9866137399309305 1.8428519255471143
328 6.879674853190195 2.8107308899730645 8.284258810264717
487 -7.507739367948135 -0.3079971635310397 4.010320068375566
201 1.9074733533033528 -0.46976741547465917 -2.387382370400656
234 1.4245533231052445 1.6664991022926874 -5.939700495363007
117 1.3716738853082657 -3.134207141980844 4.707048272664467
382 -0.431461812530207 0.4018519924712207 2.6115994525572077
280 -10.295112046523698 1.5541563988248834 -0.7762552311282306
258 -1.1017533228456045 4.008203284017693 0.3197849885114664
55 -0.28681997387985503 2.804751479144777 0.2943175748221593
306 -1.0732647311672219 -2.9775222103320425 -2.557695116416587
362 -0.8286693738095668 0.30286542426031565 -0.2607619932348908
119 -1.269202495203129 -0.4536455614232323 -3.4004557428571895
205 -4.9797368640648925 6.179084801053673 -2.301039358326293
314 7.489222185005102 1.675828022899082 -1.0887144105263584
73 1.0161216796481973 6.424337943355572 -0.06395549881687543
71 -5.675775555967214 -4.414321030027564 5.365361252037544
225 1.8750512438883564 8.216917553000528 3.5313087044882288
431 -1.2724739931224587 5.145501051864 -4.427556158051621
124 1.4562470159406276 -10.329973770571668 -3.39180993983012
50 0.8103014014029943 -1.7295628493349078 2.9024081222201827
388 -1.645055484791117 3.8314089168033854 -4.077640920909864
113 1.465658331210686 5.377920530133833 1.7962721553059848
153 -2.027178148530493 -0.3707030324881764 -0.25330536904604334
273 4.3515173196980355 -5.127734193619382 -5.2948870594995485
59 -5.120488814878646 -4.700623818889384 2.3637462171708576
284 -4.799786416156204 3.530456035007851 -3.3773623463947806
475 -1.924134208458393 -2.2142925024781976 0.35934840043161964
256 -2.7653196536550957 -0.30644898318473424 -1.0212077940992905
317 -8.31063421682122 4.321181714744591 -0.2665889732811217
252 -7.823941272381287 -1.0852750533155702 2.249712017411259
75 -0.17464282527788633 0.6911497747598032 -1.890838313955301
492 -3.6984489054751855 -4.5613497991449625 -0.9969761169717294
292 4.173695329455812 -1.106746615090363 -1.5073131483061772
313 2.0333497679545256 4.576115916301448 4.083328265480315
211 1.2264259321625346 1.2099586929886 2.131628803998376
295 -0.014371456861820486 -0.3091276436336973 -1.00458073836507
288 1.8783806795165972 -1.9037790685622777 6.1248121839051874
163 -3.1965486423012215 7.7879180200150016 6.827303923764801
81 1.6268997563301448 -1.975119007094191 -3.2248551389595783
140 -2.232587227362304 -0.7238894262367804 -3.95419787317814
417 -2.7226158308424786 3.5747648498095 1.7510832940677676
176 -2.448883182387576 0.7201024247725852 1.2100848624661236
269 8.583140137797736 -3.88995508977314 1.829209697544504
489 0.08084906593607266 -3.344172657519287 7.884607987615077
131 -0.2730809711026558 1.084981116342156 0.30401566185766293
380 3.618955497631268 2.2711142315089923 -1.8591942701730113
352 -5.984044142702715 1.8298819187905233 -4.39191538372382
373 -7.447573206516449 1.1259545664540163 -0.12721195508340344
464 -0.5190496266683087 -3.1384799851951 1.1597868388238457
438 4.362110584063355 -5.891440060140973 3.6190551352257505
466 -4.713053454604114 -2.2247522320652253 -6.660884627470577
195 3.372355427910886 -7.302527274279543 4.208909104298997
84 -3.949180744976263 3.105936279603985 -2.0296035565575705
412 -1.8060654048493268 2.3250606550998723 3.50007571812303
237 2.1886992839665784 0.5513603306737863 6.852341441505711
386 -2.8123031620769505 -0.06042039272758965 -1.0301825415631787
141 -2.2511042786938367 1.7338250779026756 2.411133263547103
462 -5.139158641896822 -1.1934422455327536 -0.026887704660286275
178 0.6637944887121322 -3.5617886688165217 1.574473699588113
405 -7.40226771350376 0.7524067750351958 6.612762785676876
435 6.713415805089026 -1.2089524834547283 -2.2928077035955092
289 -0.928338844212063 -6.202080387081614 0.4525369956155608
168 5.349645099454024 -0.48165260570012636 -1.1764552034463966
134 -2.4552757702036057 -0.4110927487250415 -0.3792159072409734
51 -1.2901993654707604 -4.75862496338617 2.110843484091587
171 2.594774488067514 0.32510461443448435 3.9006655567401913
244 -3.1496740404896206 6.574138755419189 -3.853875698052693
457 0.022526393493613454 -3.5340516827846438 3.706145124554581
20 5.061414123525447 -4.1145392189216485 0.6536841714232765
474 0.4731528986699787 1.3998035131622732 8.355267865857021
68 3.296968045273746 1.0946870960772452 -5.128588200966019
479 -0.04265519204326597 -2.843435537270583 -1.8411180730195567
296 -5.185771560140294 -3.3349110207038963 -3.9560728734679094
387 -4.980248395067194 0.973767160462407 -3.5484376477912685
137 -6.019677258580362 -1.0566643408766914 -2.6268683980029826
299 -5.134851565297146 -5.405363059011131 1.7139144463000022
107 -0.6202504189696836 -5.862700107444123 -0.6281241628697183
340 1.2313438441721163 -0.18819166924033115 -6.191000021129772
32 2.8071185917965527 1.4344297236690713 -3.9483422691735797
447 -4.729570682370589 -0.9557711308933174 -3.143048824287151
191 -2.8002657626660827 -3.9775171831534526 2.873685519428184
150 5.93085026910042 -0.36912347146612395 3.6964620936350663
241 0.21745421691470362 3.0766646375674562 -4.310776079596048
321 0.3532027437653193 1.917560380234935 4.500922426758639
364 1.2307603725257747 3.2868161435007037 -2.298880073583523
125 4.364018437302054 -3.8242415299059513 -2.115445315723545
210 4.124844765553962 2.3695360977000264 -3.5959561581783404
139 -7.389826127421023 -1.8740819074698492 2.2462678484572653
56 4.346383678010123 -3.857197915577832 4.200533344158472
37 0.9949892003779655 2.5649111056133678 0.1743281752333963
128 -4.468195796999176 3.854067533766097 3.867027958744068
31 -1.4966141601537952 4.800408363384956 3.2936381161965844
439 3.218737921849192 -5.478895852852469 0.8398259436587909
129 -4.733370468683261 5.924839085226852 2.69988902160463
367 4.070431260011733 0.2904063893775533 -1.1204777813918476
231 -4.7893327857956285 -1.6956209226871088 6.770495603638825
335 -0.16953339237866097 3.0160647960059084 3.9563640083185643
285 -4.620377814594644 -3.030191476258485 3.0012848070947205
34 -2.053046174963035 -2.322558200040843 1.4785696010457112
499 -1.3275793460198138 -0.551838537368821 -2.6471483486383067
43 -3.665608382439995 4.418676751812522 -7.934008005346856
189 -2.902765379352655 -1.2174443576490954 -0.9247072686760736
478 -0.3954989734965996 -4.232550429380845 -2.858815428705769
385 3.1033658834320934 -3.8985448092378423 3.477321278227751
320 0.34669057182685664 2.228021210776319 -3.960647203906741
452 3.576588207728775 -0.9855680767449115 -1.9536262770029644
11 3.0221109654328444 -0.9971934040322725 -4.73842763280179
108 -1.22302859656393 7.005686461101925 -5.1633573331868705
414 -8.1919893823873 -1.9316596593632376 -5.885766696973927
347 8.753157397801672 9.767154514829102 -5.997120293102481
420 0.3509065233060389 -1.459268067526707 -6.197992880277653
370 4.612943304122546 4.784958050704133 2.181308878740131
488 -1.1471999199919205 -3.9954865390137755 -0.5628834934553796
146 7.554212596858108 -0.1392269715684228 1.8546945122638447
174 -3.9870728195171306 -5.786591668174977 6.924712173554964
344 -4.932470424550375 -7.274933675268282 0.8177519956886298
361 -2.855579622559157 -0.34944500902133513 4.128907537436319
266 3.924748295987971 0.6479523798885832 -1.5241617784426535
85 -3.243192847465289 0.6560479479169705 -1.902259087828822
232 -0.22972723079005405 -6.204540152915604 1.0142814551716957
194 0.6545507366550332 -6.322661100248764 1.764548365566422
378 -2.0193878708970363 -3.9189088032262682 3.80540470514576
372 2.0198119902800347 -3.236420714566646 -9.787905652644971
312 -1.4590860556966878 -4.118634700892598 1.1926037260341145
46 3.695275624209968 1.5856048924559432 -1.486741069580176
25 3.7607740895971853 -0.5138555111885319 2.2091634862753993
365 -2.7640835759176565 3.8005522590447915 1.9791532935040925
92 -7.01127577781909 0.3467073532201119 12.239755470672652
226 1.8815845514996865 -5.751923722169929 4.608833497950552
242 1.3631314531937053 1.4183228213534695 -2.145537579030994
102 -2.3038663626167515 -3.370622129313064 -2.5056474458326807
177 -2.557166365276906 -4.5130181320941425 0.7007604984371448
202 6.884497984695178 -1.4113561204077942 -0.22230933981948128
13 0.3471306440270286 8.627770261539562 2.8594681991129964
179 7.702762745541931 1.1056202649841518 -1.822107736505141
318 0.5454610617445703 -2.0821470784296836 1.6951152156059224
333 -3.7285092386561565 0.139040669046375 -3.629244593867509
198 2.524455587825881 -1.5493629450269186 4.655479214076631
389 -0.8911907080733966 -2.5524644323057073 0.7496636138965256
6 4.033524127536168 -0.5747827622016962 0.4548650533756317
200 -0.3733733646017786 1.0347269108584132 -9.153417606138966
222 -6.199107602082238 1.8525038966240333 -2.5361691397350374
14 -0.17084593478404084 1.029854651571858 0.9396877974592674
257 1.9590763204629924 2.843135694423829 -0.41099001366604976
162 -4.605135763040357 4.163320820039241 1.5253692519506523
121 3.5686452927051064 -2.757869881434144 7.99617371995846
455 2.507933691698817 5.519221363173393 -1.4252782409894733
47 -1.9265526604280685 -3.5400021816236347 7.3074645354337004
496 4.502025178047888 -3.64277462902857 7.792701090363712
173 -6.002747614559346 3.123995901725184 -1.2217050564960097
63 3.076711630296663 0.8797805431408922 0.46982977642163604
369 -2.647754977587577 0.8737768247923072 0.8812809687915756
319 -5.89941663809417 5.701160563488049 -4.946963139226859
219 -7.817175664338403 5.8421921247658215 -5.587220378404021
33 -0.2574511159074004 1.4743754501531925 -7.044073842791249
366 3.4408728322556588 -0.07492942633000269 -1.7793471945782255
324 -1.1224040321158864 6.92983607684884 8.721013659319004
472 3.5945147401652626 1.7689080362177605 -1.3511513061256002
337 2.1291372254939023 4.762280748420581 -3.248814676467826
24 1.0218958741373745 -0.7553259118210898 4.787107386579568
114 -7.445239577803149 5.965879493304278 3.0868855844377014
112 -2.4991428474058184 -1.3598677911813268 10.011141743877479
184 2.390109250229417 -2.5901285588483507 -2.774098157852947
498 4.646750014609534 -2.360532716472417 5.452570360596002
187 1.571666335176671 1.128835782204533 -2.311036445546976
159 1.302763435746898 -4.690291703858483 -4.017829277915751
229 1.1480968765157507 2.3267734958816275 0.3318946841494048
12 5.1230528425878425 0.810277404091234 4.778245745261986
236 2.5723319617857743 -9.849056548531365 -1.9752040267206223
220 -1.4779595113880664 -5.905428033603027 -1.0962077171958862
350 5.904331538674214 -2.7466880824438644 -3.3301331874413265
253 2.2976516097995185 -4.50760665200118 -6.074498686196699
83 -5.651807582924317 -0.8039476422532796 -2.275888833805335
148 4.777319230497261 0.6728095377268618 -1.1091542479098506
98 2.61469214031848 5.318692728762818 -2.5241136162992466
164 7.506203692355873 -7.601805779517909 1.0597641803579823
30 -0.7644672196657171 -2.0796401808454825 3.206851986944666
363 1.386243522063302 -3.0514523421523516 -1.5418498069698288
376 -0.21349978830497446 7.363667362393255 8.700336365721963
329 -1.5651084808675817 1.07468333432501 -5.571029146444179
196 -5.994344688734442 4.756072066899505 -0.7703570094096875
437 4.891408620556888 0.11237266608665265 6.526551368797093
393 -0.26803825475723486 -1.6790050963196763 -3.0158127154382663
349 -1.992186884165286 4.0964463759028105 3.538077168307787
149 7.670519766294407 5.61473677479824 -6.042900982394478
309 2.136677198438414 -5.418347072171432 0.8402113985161512
106 -2.1490022383412968 -3.325716806613846 -2.7420901022929063
250 1.871549102600148 -0.5160538972168356 2.2294176027823025
58 6.350498088867077 -2.42602826786342 -1.5939486019133704
458 4.325718874999444 2.995850598999887 1.0852168020703155
483 0.18838463448599813 5.955304310052806 -5.590148443943456
408 4.514731072531825 2.371826489368795 -3.32219623938126
377 9.96404702284396 4.147886141161797 2.058995079870701
446 2.477166074076183 -4.833307875747527 5.549038757931304
216 0.17954322679887233 -4.499097556806225 -1.3538328928233605
359 -0.56432874305977 0.6763559849916198 0.9659727107714952
105 5.324261586898823 3.8935535797744496 -1.2104050426468005
374 -1.4751375049197268 -0.46369969464898114 0.6668853326665292
127 -0.06866559121095074 1.1246308537121181 -4.844101758452155
468 11.311720782588134 0.23029473022738486 2.5954496766033963
217 -0.039167022373271285 3.3318806816356163 0.1197500461037898
213 2.095294443495817 -5.1423085238557205 1.6880244013127166
445 4.449612902412795 -12.039066349850836 2.7851774474505286
120 -1.4325393346571922 3.248077876710349 -4.223762571869516
459 -1.760150410013101 -1.4776619652070107 -4.157189314966312
93 -2.3437602674151865 -2.5884901400930342 -6.3106568660059645
461 -2.621619348893477 -1.497224237332873 -2.0343290589313145
341 -4.552609275266155 -1.1302152010033972 -4.081624329481452
203 3.3907548482622554 4.321728053035814 9.446001742787491
308 1.8846203650556574 5.2913505305913136 -0.6753792482605367
130 -4.96588102357597 5.281144609612585 -0.4424511412658015
239 3.435936839625955 2.1867519157333493 -1.492660247035691
233 -3.5861473859265276 1.6000775432564074 -1.9369155050327629
238 -2.036937598927777 0.18068033748974516 0.004553293615567115
170 -0.27831876704645947 1.3145482448480357 -0.5549792276434751
190 -3.627064708233951 -0.6498911351245844 -1.3568696640085163
451 0.6551178521909273 -0.858377593572517 -1.848750471031801
8 -5.180820972438262 -5.32512243175788 -2.1764010562272156
206 -3.972526193260926 2.598977090281837 -2.6081516090953913
413 2.299500219253299 -0.23745321151740803 4.603889891503838
158 1.369084859079924 1.729582479035411 3.53422525859614
82 9.068815701693767 0.9144590145671414 -3.307904978361445
263 -3.5196539396409356 -5.1210616566930725 2.176437359619782
355 3.6626540544004818 2.23672327406265 -1.9363659840438279
48 1.2234395661308197 -5.895108997265434 -1.4285202648993955
310 -0.8812815036476946 -3.866997367193409 0.08415812352515732
77 8.435392455499823 -1.2284625721814277 -2.709751935156793
415 -0.5357658770918872 -4.79519488820236 1.2737217041179782
54 -1.9676061499366182 -0.12039385608882866 -7.171797226534506
67 -1.9821485224565634 -1.6637865997481764 4.366879711517889
118 2.42647162322212 -1.998528961577858 5.908323176630223
396 1.7378875028436715 -2.413188404205911 12.158522263483142
357 2.7930431198878796 5.550532869411046 -5.435148627947844
204 4.114043635908223 0.8975986779918473 1.221360219986129
418 -5.96356313859045 -8.015381629898256 0.9838762432290178
426 -0.3462099193058875 -8.181297290267311 4.320260972657584
160 0.6827534384129748 -1.297021295773739 2.7205823152796484
416 9.743020040927357 -0.12084728799439441 3.1467567196073696
74 6.349758562438348 8.27819367129191 -3.9888694220002052
9 -1.0897726405027828 0.05558260249467426 -0.6161050795012691
427 -1.3520373646349828 -0.38643014966889216 -1.6497299365992746
88 7.858780430624184 1.3361088613027492 -1.6569548406776728
133 4.119318415608579 -3.3751657128090913 5.164970995096972
101 3.8213222782310896 -1.9774011255256294 0.19218516798780594
35 -0.9466486790928447 -7.114244121362552 -1.8338363082407911
188 0.20620302516628194 1.9420815880132132 2.616536853065017
132 6.096816755225918 3.546648724889763 4.9220495269941695
399 7.9124650591550285 -3.9852640803374215 0.7173757126985756
470 3.61733949656858 -1.3638133713216083 3.9818027004391627
450 5.592674052240451 1.8690373886599585 -1.8479701960887795
384 -3.914115552635611 -1.872090365832766 -0.48066342441016124
480 -2.9993291846036416 4.487607265570413 1.4271726156224704
304 1.7588600238161767 -0.9830161365242016 -6.97389733209812
181 -0.9409342134468655 -0.39615027602923986 4.699051694045669
338 7.1031620175529975 -3.8980908515724564 -4.11741618608083
290 5.413925995780372 -0.26931959510437486 -0.0562939276062511
286 -2.745065499771437 -0.6869361223554105 -2.303811714522549
473 0.2650094749566028 -1.7700052915793343 2.018319485412989
441 -8.531871975575655 1.9401515498167752 -5.457816214540508
495 4.787884200465798 -1.561045307666691 2.18727583799753
78 -1.7396037192959062 -1.635998254106594 -1.106375418072461
354 2.1745283602448766 -0.22967313367054604 6.210795424779319
421 5.688653326688252 -3.707354325999409 -0.0446044440892719
64 2.4102664411107324 -1.6055585514510982 3.5986277599119054
228 3.9095694127523513 -4.200761868313538 2.761242116745324
371 -1.4793031748751806 -0.5550801057410406 -0.3725518850176248
448 -1.4507956451822879 0.5589104085323824 -1.1305335898950033
264 1.2215451291392077 4.419451142500976 -0.6700032289272508
147 -0.20644601165454926 -0.12252970618091269 6.734165317251854
339 -1.3197653653723678 -0.3984853314251044 4.58112037484256
215 0.07606727749471848 8.430992009099755 -2.2184538102687075
180 -1.0771401491215082 4.972795592223661 -0.7163923203890089
91 3.0086082021705924 -1.3578919139105112 -0.2041632247191304
245 -5.863983471665361 10.871727662573225 2.3713041727665383
402 -5.757475673728145 4.428451612952364 -2.7062303711734823
255 -4.7301193004915 -0.1803327013860071 -2.9634494671301255
197 1.7218521974016563 2.0765040055373167 -1.5870992868475673
375 -8.042377121679108 2.9709709653779917 -1.3563283043617615
223 -3.6208361710151413 1.8599337716567867 1.7190743718073982
276 9.106050088177092 3.470079150819049 2.394131411750612
38 -1.36002325983172 5.8336195755079725 -5.225468314876078
143 4.330740862759057 3.3502901895355763 -4.487018899062869
243 -1.0052117596135486 -0.8968266701978664 3.981720407671447
390 -1.4037677237736772 -3.1632162101280743 5.6027366462927946
353 -0.6458319923383983 -1.6440912632226565 -1.589770270859078
116 0.08935645209115398 -0.21060395665342788 0.6627355215017718
104 -2.4321383809839308 -1.6162020459610213 3.0998901924854114
469 -5.424267469013917 1.1572769930627027 4.252857750462334
303 -1.7959772202250983 7.218054262840166 0.4615593407444158
330 -0.9222298482592203 -4.63131898071087 -0.752775444875141
275 7.530008648163962 -10.091785035795514 -0.21802455069337132
494 0.8755941178463813 8.766376293917896 -2.424355028340998
291 2.2930322385725392 -5.642258766162163 -4.813432177427887
401 3.9671226032068017 2.1302248402133706 0.7835428513173924
482 4.3818827140783245 -0.3930596274459504 4.094185079516087
23 -2.344367115416169 -0.7451227308457593 1.258071195082375
368 2.7652604614388503 -5.251576738247034 3.609290728122075
356 -1.4630146498975658 -4.161628523846011 0.05952106190820941
277 2.897307443323812 2.2399981838200285 -1.1312730757720426
