LAMMPS data file via write_data, version 22 Jul 2025, timestep = 400001, units = metal

500 atoms
1 atom types

-0.26477772550937395 18.151931075511396 xlo xhi
-0.26477772550937395 18.151931075511396 ylo yhi
-0.26477772550937395 18.151931075511396 zlo zhi

Masses

1 63.546

Atoms # atomic

64 1 2.3174335995293833 1.0329623149199 1.5562919851380619 0 1 0
177 1 0.8132207351753491 2.114096271926929 3.3399048493188133 0 0 0
329 1 1.7841656154667032 3.57925633710605 1.3941771036495352 2 1 0
279 1 3.5246408271299825 2.8729806638454964 3.2988348687370643 1 0 1
307 1 0.49934611046997923 4.651909879981007 3.5365634022871184 0 0 0
313 1 0.08043160865919946 -0.008391597721952915 1.5434450757180487 1 -1 1
325 1 4.179799564258176 0.3074035597666842 3.225737690615903 1 -1 0
233 1 4.571334932900764 1.5273806053211572 0.9752629758696609 0 0 1
460 1 6.741663110552949 2.8104651804890297 1.1961612061046658 -1 0 -1
389 1 5.623868659198255 4.199691669356737 3.187728264568758 -1 0 0
359 1 6.36196487310816 1.6911124241839421 3.184285419368382 1 2 1
432 1 8.52205289570548 2.3381944137866735 3.085414345834762 1 -2 1
241 1 8.883313029319758 0.8424536899413175 1.1077169952784842 -1 0 1
208 1 6.582719015537276 -0.12086511182041254 1.3031490522613811 1 -1 1
414 1 10.716676382574185 1.067483017711526 2.4916082562476762 2 0 -1
38 1 11.081697249101076 2.729517219255313 0.5032882398259975 1 0 1
132 1 10.447340834670404 3.7275401578412164 2.779798749090437 -1 0 1
280 1 12.652448123087137 2.392828746853605 2.357031616341626 0 -1 1
46 1 8.849920632753129 3.9876511067890084 0.9107828235687494 0 0 1
309 1 13.230109944944484 3.7294605749726735 0.1140414801184963 -1 0 0
124 1 12.630282313273934 0.5877939361808295 0.09233369156697219 -1 0 1
442 1 12.348582675604796 3.5424467699264337 4.658823275678205 -1 -1 0
179 1 17.2442208318297 2.2264354418099717 1.125244427494096 0 0 2
380 1 17.181705990768407 0.5162663331171587 3.488597558869915 -1 -1 -1
258 1 14.773435790587634 0.7852294047207233 1.8017763749284574 0 0 0
268 1 14.967980283957793 3.225195945646947 1.6468888034515103 -1 0 -1
10 1 16.860034670231215 2.965255781735066 3.3911414071762174 -2 0 1
458 1 14.59639312778363 2.171087978830646 4.010990112098024 -2 -1 1
405 1 16.932276308175297 0.10525561218810686 17.924549371787883 0 0 1
339 1 3.290181475089181 5.338085634934032 3.401770716187223 0 -1 0
105 1 1.1332544113159604 5.811750651876391 1.3399763291771876 1 0 0
415 1 3.4413942828396973 8.020668461443208 3.7975638028008305 0 0 1
60 1 1.4308540419892548 8.236614697003596 1.8085685192546457 0 1 1
361 1 1.0540893508491613 7.082967780534449 3.813913352537935 0 -1 -1
143 1 3.54405080632883 6.707792512698693 1.5290586491588205 -1 2 1
489 1 4.325784801251657 4.092382245504137 1.1826411454901686 0 1 0
169 1 18.056502344952087 6.378737353211802 18.037098847812956 -2 1 -1
232 1 6.419533613169404 5.426041952191859 0.9432813978350876 -1 -1 -1
274 1 5.403022675709447 6.711074519208446 2.9715676526234027 0 0 1
95 1 7.783662436752634 7.536765495708834 2.8289538062493995 0 1 1
427 1 6.39437087282882 8.079575742111581 1.0341278747688034 1 -1 0
121 1 7.828642525167657 4.8485402987025745 2.8627173967468695 -1 0 0
191 1 8.87848944467268 6.5117115710160505 0.7605068064506066 0 1 2
275 1 10.931743242419566 5.234649143927495 0.7269839090052704 -1 0 0
308 1 10.075814923738186 6.258292736172739 2.7588270130655244 1 -1 -2
17 1 12.439810019824831 7.296364808446578 2.4695028179435945 1 0 0
197 1 11.28617092997586 7.837446334322731 0.11482217841899994 1 0 1
331 1 12.85405557655964 4.776441151125462 2.2110621776868977 0 1 1
396 1 10.206937043849745 8.58584315065717 2.3277960671556217 0 1 -1
282 1 11.960479137269754 5.938022205048531 4.525181628934325 1 1 1
26 1 17.231095735100958 5.097388481151121 1.9038742140741967 1 0 0
451 1 13.267745613954972 6.271796573074893 0.40364416838694694 1 1 2
20 1 17.72524077482028 7.3744994876970935 1.8946750619419648 -2 0 0
330 1 16.454032705524305 8.692379466410069 4.014756606492247 3 1 1
156 1 15.082790613693607 5.709852172703058 1.6616928402343951 0 1 0
467 1 16.867554748004345 6.439114882530886 4.093675527297892 0 0 0
426 1 14.457741639633904 6.864338166579055 3.903443870385635 0 -1 1
130 1 14.930055473997292 4.519604246340431 3.834949985212811 -2 0 0
137 1 15.954349795659835 4.580280266962709 -0.2499911450102072 -2 0 2
476 1 13.527128924854464 8.990384691867888 0.13249775112837292 0 0 1
211 1 16.096711858950613 7.690550098666762 -0.03156417585610033 1 0 1
122 1 0.4315207939950533 9.464023443431573 3.7390057566947013 0 -2 1
447 1 2.6910450955502387 10.585180074297442 3.417219950511005 -1 0 0
176 1 3.7968422853947654 9.148123323205988 1.5912803102391155 1 1 0
488 1 3.3502802399671325 11.819492168064116 1.4259049761514015 2 1 1
351 1 0.9131352680658338 10.591678586060734 1.646557694163605 2 -1 0
160 1 3.1398170873614553 13.19363850514015 3.5542931749379387 0 0 0
48 1 0.8557823515709284 12.029188398089131 3.8019570240408687 2 -2 0
471 1 8.48159942924482 9.09350791906576 0.6117848019822504 0 1 1
486 1 5.487688705932252 9.270158009185979 3.5173408715755516 0 0 0
296 1 4.859564038109547 11.467104390524318 3.33645934788188 1 0 -1
173 1 7.996264609150732 10.205825435803565 2.9756036740657192 0 -1 0
342 1 7.158217471820128 12.649463330850397 2.6206861668431745 -1 0 1
421 1 5.952357437503419 10.698086083116012 1.284428416710277 2 0 -1
66 1 8.379545807187462 11.54331593347846 0.4782830554118843 -1 0 2
142 1 5.63699930971605 13.062136907425892 0.9085466139084111 -1 0 0
202 1 10.54761535335649 11.24001462832837 2.606725113360166 0 0 0
236 1 10.80276962355972 12.966471931996756 0.6712546884800965 0 1 -1
456 1 12.63324135756029 9.855051919220076 2.3270318560130945 0 1 1
50 1 10.518371371328007 10.340676552442426 0.491139995192578 -2 -1 0
166 1 12.767915410298572 12.656985024872972 2.442420139078542 0 -1 0
231 1 12.677516288839067 11.321199322204098 0.2179063498849395 0 1 1
189 1 14.843800240081588 8.395175833798604 1.9256624966579432 -2 0 -1
164 1 14.28084549755186 9.373194366875238 4.082459787916159 -1 0 -1
437 1 17.038659378927356 9.823546059675843 1.652828602110895 0 -1 1
199 1 14.818222931258525 11.038812077543568 2.223026632834789 -1 1 1
215 1 17.402049896844737 12.251874854209488 1.8023295794625884 -1 -1 1
186 1 17.075710237459944 11.000129908482046 3.8016660648929053 0 -1 0
133 1 15.258424558725798 12.458024315325597 0.24240211316273086 -1 0 2
204 1 16.930390499690077 13.437176763622148 3.9091084903666955 -1 1 -1
150 1 1.3838848590738249 13.251889389906339 1.7541125943254494 0 0 0
27 1 1.8556151632412816 -0.15467125336027732 3.57997109307965 0 1 0
147 1 3.345410503809599 14.465254214776873 1.3509785105176115 0 1 1
138 1 1.4249281665949203 16.118546453974965 1.8346411177098214 1 -2 1
483 1 1.124111927215988 14.487328347004443 3.9871680099232716 0 0 0
19 1 3.47699609557021 16.050782910527367 3.5228605588942528 0 -2 1
376 1 4.150872299599854 17.505507390300195 1.3056704488496875 1 -2 0
184 1 1.2050413641998163 14.901188961846758 18.066169807899904 2 -1 -2
301 1 8.033265386126919 17.925918930253054 3.1139045457896053 -2 -2 -2
371 1 5.6206113815631715 16.807933234506415 3.304535314444329 0 0 1
431 1 5.556999920879097 15.505691341077249 0.9093944226888662 1 -1 -1
480 1 5.267124579744145 14.246064445726274 3.0883993143056014 1 0 0
123 1 8.291035063431378 16.620908792081167 0.7374951020980272 0 -3 0
86 1 8.071812008564413 14.109976193391919 0.5266651064052442 0 0 2
306 1 7.757342184805934 15.189972888451305 2.6765891335309586 0 -1 0
326 1 12.713125754350317 18.06552880732211 2.2387381277789067 -2 -2 0
448 1 10.611822521594542 17.697007811154172 0.11238664245462521 0 1 1
260 1 13.037650589646535 13.597289050907508 0.5017351611245917 -1 -1 1
464 1 9.60637729201927 13.514123384069444 2.706267922032553 0 1 0
82 1 10.143259793028742 16.96613518275474 2.3207839919878497 -1 0 -1
262 1 11.824764722627455 14.725649639115307 2.3773041603019904 0 0 1
100 1 12.851538392746432 16.27594849578152 0.31290806381749925 0 1 1
478 1 10.467059232258674 15.3520594178843 0.26421652891464387 -2 1 3
397 1 15.008250429103631 13.723229264931872 2.2877474722533866 -3 2 2
188 1 17.431648746636576 13.561852837640474 -0.144368194523962 1 -2 1
311 1 -0.19741382307376842 16.68657242517478 3.7733779454389484 -1 0 1
333 1 14.817746448080227 18.025153152953457 4.041753325093362 0 -1 1
492 1 17.71942869303888 14.86299482762217 2.0321345086673355 1 1 0
56 1 16.523591787854023 16.962788061261605 1.822770073351713 -1 -1 1
97 1 14.126203759531034 16.02662426230964 2.3161409289893045 -1 -1 0
55 1 15.061311506685385 14.895534772072313 0.11268453065836503 -2 1 2
375 1 15.831863396056209 15.62692024536992 4.041263061444871 0 2 1
149 1 2.0891054476304753 2.353690620369024 7.46689862090122 0 1 0
416 1 0.6953133420412814 0.45852076389104923 5.588517642351681 1 0 -1
104 1 0.41574753945456266 2.937706676860301 5.502106476879443 0 -1 -1
272 1 2.5039718377852425 3.875295335490665 5.331393117245596 1 2 0
107 1 3.099627729529107 1.4191608530785076 5.240960708856614 1 1 0
23 1 4.169973822206159 3.746775166401031 7.138971830998434 1 -1 -1
77 1 17.90469195933507 1.1272391963339325 7.460639372794584 -2 1 1
300 1 2.2752185393809436 -0.17242472069916204 7.910877038609611 1 1 1
13 1 4.447931689860538 1.234460612862028 7.3221330103750235 0 0 0
69 1 5.1612474387962495 2.622334130229063 5.093910465276171 0 0 0
79 1 7.299630824682875 3.810631658901122 4.927277350835753 -1 1 0
271 1 6.712084371370777 1.8761628926529763 7.163029518429181 0 1 -1
350 1 8.180176853567872 1.0906628316310856 5.022332523266808 -1 1 -1
12 1 5.613405225461417 0.25077517210702827 5.233977104261677 -1 0 0
223 1 8.812277333675697 1.5492503787103058 8.91096337958886 -2 0 -1
226 1 8.873590695751849 3.181221545761522 6.922694196427848 1 -1 0
39 1 12.421161770950212 0.9655077958038636 4.2133738436293875 -1 -1 3
15 1 10.17593706374992 2.4594594275601636 4.995459058107847 0 0 0
240 1 12.17718536611691 1.8417359651793284 6.239159498907065 -2 1 -1
292 1 10.148284088248747 0.6238723159964206 6.7644895037621895 0 2 1
297 1 13.641722206811416 3.721755069543171 8.14633090720355 -1 0 0
418 1 13.477238759766006 1.1839001066573436 8.180755691176595 0 -1 -2
51 1 10.90288144141654 2.6896234011909335 8.520540920657272 -1 1 -1
214 1 11.305663591602853 4.332105405612607 6.790944471311219 -1 1 0
28 1 11.34998099324016 0.11367084829228785 8.703989689770442 -1 -1 0
497 1 11.898049460761563 17.43195169394486 6.169189055607883 0 0 0
178 1 -0.20836867909050483 3.6542456570060704 7.568856936069528 1 3 0
98 1 14.660421882613349 3.3353767601324384 6.149964808525507 -1 -1 0
373 1 14.200119399437165 0.42126994962334396 6.10829492674839 -1 0 0
163 1 16.520293162372155 1.697821458263886 5.5543796449661444 -1 0 0
395 1 15.930434992278824 2.489362116238211 8.052428396538543 -1 0 0
408 1 15.808714536750836 18.126594080033637 7.9760247330093375 -1 -1 0
120 1 2.0439788067650744 4.844674070518499 7.6981868776398406 1 -3 1
481 1 2.9478219977065994 6.580334859327266 5.645624347004301 0 2 0
128 1 1.6757842744675355 7.1142591607364 7.539084867725469 0 -1 0
162 1 0.6334022891477922 5.658539744659125 5.756071720822104 1 2 -3
247 1 3.7803871848760338 8.431155470012326 7.504843570904801 0 0 -1
406 1 -0.08747926106060078 7.878579291033727 5.908692816977546 0 1 1
354 1 17.849963041322006 6.187579609168796 7.795081600969235 -1 0 0
446 1 4.334443916363862 6.135050076489677 7.656562149080187 1 0 -1
487 1 6.500379077700039 4.305596028267251 7.225924375835666 2 2 1
462 1 5.254053677178599 7.697826183672938 5.346333002600744 0 0 0
314 1 7.561760828392382 6.206210710943952 5.144532700422755 3 -1 -2
284 1 5.1268591918842334 5.45436788576795 5.568154165889238 2 2 0
24 1 6.606488777487455 6.963653509696576 7.319568883210941 -1 0 -1
87 1 7.400830517076828 9.011664753344425 5.198228186620837 0 1 0
310 1 7.798803070183682 8.606955712677063 8.988351544888342 0 0 1
474 1 8.851662740426653 8.252748811682627 6.996287537498191 3 2 -1
54 1 8.859794119031001 5.562594213664163 7.177815102841939 -3 0 0
475 1 11.701320114986588 8.600691255127549 4.470251973731934 1 0 1
479 1 9.544792443696679 7.581342830145673 4.622860909271504 0 1 0
433 1 9.595665289145863 4.879558921509486 5.000076465687423 1 -1 0
108 1 11.254306670376195 6.9547972870148715 6.574366032528256 -2 -1 -1
417 1 12.404018211751914 8.295881000418415 8.432692130621678 1 -1 0
455 1 9.820184108523216 7.263467311512518 8.885793647382958 0 0 0
438 1 16.880813495211882 4.508985224894436 5.4940805461454465 -1 -1 0
44 1 13.613379467846006 8.132884311467002 6.101895029839128 -1 2 0
7 1 13.972584861389938 5.747356096785039 6.15255688532947 0 -1 0
277 1 15.722735674612817 4.96668257860087 7.7941230687400225 -1 0 0
96 1 16.733959688825593 8.61844517458336 8.019521604191652 -2 0 2
290 1 15.89237029099534 7.068842613455544 6.315472401480054 0 1 0
109 1 14.426847671101559 6.992988997080733 8.418134760104897 2 -1 0
174 1 1.9749445763961897 8.94941066756231 5.722916611503516 1 0 0
461 1 0.7399252880605856 9.259826332356724 7.867712888153113 0 0 0
256 1 2.899812239343628 10.627470641890618 8.049344564781945 1 1 0
180 1 2.4626075405398384 11.637434760590509 5.573203226001458 1 -1 -1
228 1 0.7282698625377686 12.093057879660664 8.158099895862744 1 0 -1
349 1 0.041675070935984604 10.498132213194788 6.01372580395985 0 1 1
305 1 0.5461156269276201 13.06364881097964 5.870702566513815 0 -1 0
430 1 4.309769061570957 10.057967215521836 5.627224328006399 2 1 0
238 1 4.895692441471959 12.917442651975598 5.197160693391822 0 0 2
206 1 6.34268288724515 9.504736172548846 7.199673466219384 0 1 -2
171 1 5.137578040443589 11.7173796186201 7.255609162176058 0 0 -1
366 1 6.7183793389693935 11.380602075337281 5.0078858753097615 1 1 0
444 1 7.2059858704820385 12.926009451542718 6.877170429536993 0 -2 0
266 1 8.293981667090112 10.880538039451125 6.540164393724373 -1 0 0
152 1 9.178327368030258 12.194836468705676 4.476412015837571 1 0 0
312 1 12.334566936899988 11.223882909151634 4.314332438381246 0 -1 0
35 1 11.424675217263092 9.4072767541939 6.697483423971165 0 -1 1
457 1 9.70605195577828 9.88579107699982 4.590832588109224 0 1 1
151 1 10.624852040258212 11.579204288277252 6.082544045807189 -2 1 -1
367 1 13.309716031657006 12.689654205243118 6.560519032735901 1 0 0
43 1 12.176958449123743 11.072579020020443 8.280828322610231 0 -2 -1
439 1 9.984771803394763 9.94744780114481 8.509822289268138 0 0 0
428 1 9.188178956379554 12.265214347339608 8.469296785650842 1 1 1
229 1 11.23227168851397 13.518400017395132 8.06017993141568 -2 -1 0
422 1 14.955626892121671 11.849790251792902 4.542296927632416 1 1 1
285 1 13.69318005284486 10.474966435890963 6.214139620936159 0 1 1
230 1 15.973643974490889 9.799321060610104 5.9733168442598865 0 0 1
33 1 14.557144139621968 9.626039322046141 8.345363494480798 -1 0 0
6 1 17.01571660198495 11.07259846248012 8.449077854330497 -1 -1 -1
210 1 14.765344004990565 12.162562822032871 8.158320658717978 1 0 0
157 1 16.788977742130648 12.049521271548285 6.019639916336923 -1 -1 0
400 1 16.863675541270794 13.630897838590311 8.101590703984192 0 -1 2
286 1 2.835024421391882 13.280463998002663 7.546217157989766 0 1 -1
16 1 3.0258950140736784 14.655212366444339 5.546896833525481 1 -1 0
131 1 3.235007503841572 17.388331527846738 5.607863870286316 1 0 1
187 1 3.40831904313979 15.938363379403507 7.677891532206834 0 0 -1
146 1 0.7646325997993255 14.481628810954291 7.606425529409478 1 -1 1
399 1 1.2727537997680096 16.271098791360544 5.769796816095998 1 0 0
276 1 7.770077888200156 -0.23744765496962117 7.199730364218842 1 0 1
141 1 5.326069430120711 15.628840410179311 5.485430520979844 -1 -1 0
119 1 5.144213032756249 14.24010264984609 7.312677154302851 0 0 -1
278 1 5.581926873491462 17.083027185088703 7.117792139501285 2 0 -1
465 1 7.7700904274936935 16.89687906540142 5.16717732641095 2 0 -2
419 1 7.48925924921578 15.566421234235841 7.2063293336635565 1 -3 1
302 1 7.118228328288633 13.938147797939582 4.6902634425438405 -2 -1 0
360 1 12.307669145601196 16.465164226036478 4.083558965783208 2 1 0
235 1 9.522656611771083 15.527635958364636 4.383337985502575 0 -1 1
93 1 10.168867830728269 17.957837048436176 4.647272998870346 0 1 -1
490 1 11.298994824082957 13.618710742769 4.594632733991507 1 -1 3
21 1 9.455214286756553 13.990562285915887 6.380785510801499 -1 -1 0
102 1 11.9783157642703 15.011482615616575 6.393878060129716 1 0 0
365 1 9.713887792618255 16.53948188415817 6.785885197752354 0 0 1
496 1 11.221056699251921 16.03130130950261 8.787122585201077 -1 0 -1
454 1 13.561262567496085 17.05010347961126 7.928727853236177 -1 -1 0
429 1 13.682062629266541 14.045475958463626 4.4258089552231725 -1 -1 -1
221 1 -0.17485738538638174 16.964506637313292 7.63018539142066 0 1 0
249 1 15.460268757562366 14.070098389048598 6.007962769333135 0 -1 0
491 1 13.952371621268172 14.693523977377009 8.147741501374355 0 0 0
299 1 16.575688521066283 17.67474922597072 5.69845838497049 0 0 0
267 1 14.145573012601096 15.857908610813093 5.7809466433974235 1 1 -1
320 1 17.71498294524433 15.28695695525381 5.701357081797057 0 -1 0
440 1 16.06513306790101 15.816502511013796 7.484865503003553 -1 -1 -1
76 1 3.1202227450918203 3.7151568261285184 9.72564156940046 0 0 -1
1 1 0.7187927755419309 0.13744925252523615 9.84995457713274 -2 0 -2
84 1 1.0470139931328293 2.5986222315602205 9.960630561023601 0 1 -2
153 1 3.145062520700697 1.3836059333033435 9.745419719298702 -1 0 -2
168 1 1.8245260234399456 1.5798115802506987 12.270147356330543 0 0 -1
293 1 1.6434993069877675 3.9461069599577776 11.915674379535746 0 -1 -1
402 1 4.011325326778063 2.5971691594521533 11.70619835098438 1 0 0
338 1 3.835580377606549 0.849290736504156 13.452033813918437 2 1 1
287 1 6.555951414180322 0.4906892027723385 9.099085223858086 -1 2 1
61 1 7.777634983829367 3.611355352270667 9.429766864876983 0 2 1
315 1 5.296903891836711 2.644531882730969 9.596032576497686 -1 0 -1
94 1 5.22968555954414 0.40446870614832575 11.226352308869323 -1 -1 2
407 1 7.758606059962791 1.699684286533276 10.939852765155536 1 0 0
65 1 8.516605945468621 3.0011821044129565 12.964750742890669 1 0 0
445 1 8.721247019040787 0.4635772031538392 13.029229479102781 0 1 0
45 1 6.065382057646356 2.188754244671388 13.280909315228557 0 2 0
101 1 6.48272568648534 3.8987947024796963 11.457375663475933 -1 2 -1
83 1 9.734611868966649 2.860069275235031 10.744237588097917 0 1 -2
316 1 10.992147667762604 1.8784031772906609 12.875755869501175 0 0 0
322 1 13.253156448353344 0.593773656634853 12.527079604939306 -1 -1 1
288 1 12.362691258419373 1.5435096021010384 10.44149665317498 1 0 -1
472 1 12.08365405809504 4.0907700330165735 10.370005859097525 1 1 2
436 1 13.288137857509307 3.04226694307197 12.343905719947406 2 0 -1
378 1 9.960387468814012 0.4695084519680064 10.924499242465169 0 -1 0
369 1 10.754067082073764 4.454136644101868 12.647897913641348 -1 1 -1
335 1 17.89367159209442 0.7888512060168813 12.166333293852752 -1 -1 -1
295 1 14.751686204935615 2.7949504891176637 10.407381963390794 0 0 1
222 1 16.900593251157176 1.3119930548685197 9.961421298864021 0 0 0
237 1 17.7977850811671 3.194710198528969 11.558023676985906 -1 -2 0
348 1 15.503628971614244 1.7712330046114402 12.456618820196496 0 1 -2
385 1 16.954777012516267 4.102563016880541 9.748939356473496 0 0 0
190 1 14.5385115373981 0.18412620141734948 10.379536136343601 0 2 0
52 1 1.5300337745141102 6.615497165816488 11.539319873500999 1 0 1
239 1 3.118920196594814 6.160342039174744 9.5389408815056 0 1 0
281 1 0.8040994616885357 5.228976338858066 9.700314350148274 -1 -1 0
328 1 0.25622726185021183 7.791166306545406 9.719589138475069 0 0 0
319 1 4.040698987150013 5.45235226991718 11.822279570474215 0 0 3
382 1 3.998883606843524 7.702803514115875 11.54498543209128 0 1 1
346 1 2.6631509684955117 8.681528084565317 9.56946911591927 1 2 -1
201 1 2.593530739160907 5.582123560041165 13.728229621512673 3 -2 -1
257 1 2.5029462381244536 8.28960495984077 13.5254318801885 1 -2 1
159 1 7.2154300065526735 6.0650376910390404 9.535536930655574 0 -1 1
246 1 5.225240273055615 7.537791857992297 9.465529342889498 0 0 -2
59 1 5.123380595635395 5.113649459648327 9.656050912340211 -1 0 1
243 1 6.268484944382215 6.435341604403068 11.725419198343651 -1 1 -1
425 1 8.76827119264001 5.277568545070753 11.237275268708135 -1 0 1
220 1 4.957425262958882 6.97020537397855 13.643788403389415 0 0 1
185 1 7.393775762710435 5.117909720883997 13.387605612007977 2 1 0
8 1 7.097663066630539 7.51940104310127 13.539623109216132 1 1 0
92 1 12.379142091052152 5.781480872881891 8.673475869036192 0 1 -1
125 1 10.014935332911055 4.785049646431433 9.170138268958238 1 -1 1
250 1 8.639878913638542 7.714459463442863 11.168048651821845 0 1 1
145 1 10.946601904759627 6.6688690961916866 10.974632940685474 -1 1 -2
291 1 12.161995083807039 7.601871492626885 12.917861270618605 -1 0 0
441 1 13.219529080379212 5.3444244642462655 12.03698644015687 1 1 -3
434 1 9.831795772862389 6.581671175170171 13.159947537111123 -2 -2 -2
403 1 13.151633420576006 7.595289481004001 10.649941981501163 0 -1 0
113 1 10.78959943530714 9.050415961002962 10.75591112830024 -1 0 0
484 1 15.612683688215192 4.458063122635391 11.842908033659322 1 0 -1
482 1 17.850442057630943 5.62432234961704 11.596149287209114 0 0 -2
172 1 14.2961199552747 5.054640925290535 9.991383537665962 -1 1 1
477 1 17.4389422582993 8.124386951008713 12.047531524315662 -1 0 1
383 1 16.488378414605116 6.556407101899429 9.770644040260711 -1 0 0
74 1 15.199107832663392 6.89493805253686 11.904176235890384 -1 0 1
244 1 15.55233594403192 8.760091910321895 10.32076951038009 0 1 1
183 1 13.965568638346557 9.105913583992898 12.450826516397461 0 0 -2
216 1 1.3179067432294875 9.348718078296365 11.680889603770122 1 -2 1
5 1 0.36351907187828747 11.475407176524095 12.352890829200359 -1 -1 1
99 1 1.5665660479227703 11.250455956859454 10.097281644072844 0 1 1
154 1 3.6907663328507248 10.247418669353896 11.39084480530187 -1 0 0
225 1 2.58068906608748 12.73479049548555 11.785387770362105 1 -1 -1
75 1 2.5356254786677277 10.952506044923803 13.488156798684287 -1 0 0
135 1 17.81645234041129 9.92476767870597 10.414716648647403 0 0 1
18 1 3.827327612757718 12.235786369094015 9.557260066512338 0 1 1
273 1 6.416938652918103 9.045957431147174 11.37025513007164 -1 0 1
413 1 7.305036318869839 11.04546861852443 8.851136786973063 1 -1 1
327 1 5.012639048999088 9.722835114628365 9.344183518447942 0 0 0
303 1 6.096314356781651 11.47524578709543 11.01803457576848 1 1 -1
374 1 8.434958791846663 12.449498800528955 10.953775542751943 0 1 1
495 1 7.2670765326351345 10.50957837323477 13.199220316216804 0 0 1
49 1 7.081832073220763 13.258286032294613 13.130012272934707 1 -1 0
352 1 8.661742276066818 10.069559402072061 10.938214559676993 1 0 0
134 1 6.618119040980585 13.475838343992697 9.21441383935449 0 -2 -1
248 1 4.831464378703467 12.034119389835547 13.371936912600951 2 1 0
411 1 9.556041205562979 9.198828252806296 13.041173899249191 0 0 0
36 1 10.952183613393164 11.490162814815266 10.329135133034162 -1 0 -1
450 1 11.793219535014526 10.286133684027202 12.873107825454424 1 1 0
368 1 9.781819578826886 11.895710224035248 12.610409973792777 1 1 0
470 1 12.062610842874257 13.105761990126092 12.339457822930907 0 2 -1
254 1 12.970654701161903 10.054432657056635 10.374207628025774 -1 0 0
485 1 13.351273290956735 12.760624313089322 10.022201054569958 0 2 0
182 1 15.366012285584217 11.201690019795079 10.414611121379034 -1 0 -1
167 1 16.170679457550087 10.255590383858216 12.442144477824561 0 0 1
358 1 16.4544720071207 12.593154397323104 12.234483901871851 0 0 0
91 1 13.941696013754747 11.588553170655675 12.35810287565769 0 -1 -1
53 1 17.839894177390498 12.548329499003684 10.399501184432987 0 -1 -1
158 1 1.5467799481766265 13.98347266651034 9.789874384386868 -2 -1 0
89 1 0.50570544846877 16.7440633578261 11.513415609214972 0 2 -1
393 1 0.3289961136443108 14.062987879095864 11.835094378570336 1 0 -1
336 1 3.0632608774915946 15.272308438068732 11.578714384514061 1 -1 1
212 1 1.5782005334784575 16.318041682622237 9.477829261249475 -1 0 0
420 1 2.8552566577405143 17.834234211999757 11.217191211749206 1 0 0
332 1 4.289434092084403 14.695628636200025 9.640083443483617 1 -2 -1
181 1 4.392104179370055 17.68977074042288 9.256168758042948 0 -2 -1
155 1 8.917703410600911 14.857997425783148 8.877587031830368 -2 0 0
259 1 9.116912387693652 17.449708547342127 9.106694772877672 0 -1 1
401 1 5.370702210575646 13.658443520348793 11.473790299215729 0 -2 0
344 1 6.578827441007729 17.902350643765253 13.364280136767114 0 1 -1
341 1 6.6725595599860155 16.416995364435223 9.180567981440513 1 0 -1
62 1 7.606347384994386 17.74334283351874 11.177381430474746 0 1 -2
410 1 7.346912329902239 14.996694105578229 11.118811982222486 1 0 1
386 1 5.430482491285187 16.661094001333467 11.764569668569475 0 -1 1
78 1 10.323078128390625 13.781949145749278 10.484426780725492 1 -1 -1
198 1 9.34379906953778 14.410571193976063 12.684462445111913 -2 1 0
424 1 12.049673878524754 17.422434600752823 10.822721771716353 1 -1 -1
127 1 11.004931057669749 17.80015092048354 13.237763109223527 0 -2 -2
71 1 9.983304870478587 16.270705380163676 11.203438147884755 -1 1 1
218 1 12.621368411450096 15.038624214021086 10.445083406468207 -1 1 2
70 1 11.495870451448924 15.45293389905628 12.832029490313072 -1 0 -1
126 1 17.81560690037216 15.154144593069956 9.535208085426973 -1 -2 0
140 1 14.067557771561026 16.608250110922768 12.170892017198682 -2 -1 0
494 1 15.674480093436866 13.751852376998048 10.176974005685107 0 -1 1
205 1 16.603568447908266 15.616206703375887 11.817359201900237 -2 -1 -1
318 1 16.86464981134621 17.346782572692774 9.99703443941324 0 -1 0
289 1 14.95853216464567 16.13230122139202 9.672871966980669 0 0 -2
337 1 14.337727846183967 14.223458875460867 12.128616150278681 -3 -1 1
115 1 3.8219595994812776 0.15861792493992816 17.63634548099595 0 -1 -1
357 1 0.7084054942069157 1.5399091932572875 17.953093465622672 0 0 -1
390 1 2.8356556787538216 3.048003226360243 13.919950894847206 1 1 -1
47 1 3.079966322276553 2.535311546112125 17.872616707618583 0 0 -2
255 1 2.3139906110801225 0.9884862866768618 15.748648907835113 3 1 -2
466 1 1.4196177881905558 3.269184308144456 16.024888775548717 1 0 -1
209 1 0.3764816216165813 1.8936451315925336 14.359943898319818 0 1 1
144 1 0.18225615473893053 -0.07584603299261516 16.08471025376953 0 2 0
443 1 0.1593233143678347 4.030288030566885 18.145114123516024 1 0 -2
3 1 1.4834495086427353 18.150622022809113 13.741292469766277 0 -2 -2
37 1 5.23289772228195 4.298938744093303 14.023631711787425 2 1 0
68 1 5.059787059210925 2.3399168046693055 15.406796743770563 -1 1 -1
463 1 6.2043665657450715 1.3608472986853581 17.692625782357275 1 0 -1
242 1 7.297536343645381 0.993955746651306 15.172963327088478 1 0 0
31 1 8.317198423145271 2.3283371966924347 17.514162073350363 0 -1 1
363 1 8.297789840304532 -0.21228062683700555 17.466749304071676 -1 0 -2
227 1 7.404341426806881 3.4615899011739923 15.170995906882082 1 0 1
377 1 5.832501513927862 3.819591978403513 17.374376640789407 1 0 2
370 1 4.975221614526922 -0.06141905913998197 15.446496096476398 -1 1 -1
345 1 10.545547771143237 1.202779455017074 17.062880762740598 0 0 0
40 1 9.834614330696104 2.2016105614115062 14.831590086748342 0 1 0
80 1 12.558228960558305 2.2644693035581223 16.824461199473156 0 0 0
469 1 12.17348114678504 3.490799520641543 14.603040552477008 1 0 -1
347 1 11.594649101329587 0.8053173773469233 14.9975813758417 1 1 -2
381 1 10.090340027210354 3.6069941846971085 16.882780782893057 1 0 0
67 1 14.440956979557628 0.2672402684054642 16.583761037777784 0 1 -1
453 1 15.210821191522381 1.8443197242722627 -0.23266619767544938 0 2 0
362 1 15.762568825067236 18.02067371817882 12.152349673034326 -1 0 0
435 1 16.844008790709083 1.8414682634069006 16.409787996951728 0 -1 0
245 1 13.906824434296519 1.7657020764879068 14.67852416169342 0 -1 -1
449 1 16.56578284967261 3.0685137452995996 14.255040521196205 -1 0 -1
304 1 14.806031653342421 3.288237674895807 16.391438521111027 -2 0 -1
72 1 15.886740969436106 0.39486269164638865 14.638172900064925 1 2 0
200 1 2.6953791788951476 4.946697014678825 17.94749574613403 0 -1 -1
423 1 3.7505588796161407 4.44337623654862 15.789186236042267 -2 1 -3
63 1 0.28069245328366565 4.3145950894580105 13.616529571206105 -1 -1 -2
270 1 2.07705336683207 7.6578748684680775 18.085151196106004 0 -1 -1
103 1 1.1320748064821053 5.888891276429143 16.36853045332247 0 -1 -3
111 1 1.1767174443151431 8.444346950748344 16.09437141700186 1 0 0
117 1 3.372928021650872 7.064602172815368 15.529099541340138 0 0 -1
384 1 0.443518888858771 6.914763111642562 14.03303767734566 2 1 -1
340 1 4.596776301609851 8.757908422230928 17.476949966981742 0 -1 1
207 1 4.733618328652605 6.288867725051286 17.736381178363764 0 0 -1
4 1 6.051974764013885 5.719199827938164 15.858056284844006 0 -1 0
41 1 8.103909101248846 5.046805417559939 17.242773866194455 1 -1 0
263 1 6.957955133270147 7.035004996526148 17.49801626228183 2 2 -2
500 1 6.073190419613578 8.38827749687253 15.440972257657377 0 -1 1
356 1 8.58403316438191 6.771058412890766 15.350470252806598 0 2 0
30 1 9.31350471999772 4.574617227933144 14.829335171421171 -1 0 1
264 1 10.270487794858688 5.950992755513325 17.05055105946026 -1 -1 -1
170 1 11.711619706978057 5.834510925525152 14.579318740535653 -1 1 0
343 1 12.634416990944699 4.714320210939729 16.567906863128343 1 0 -1
73 1 12.792216539311271 7.322178303230834 16.645444008646052 -1 1 0
139 1 10.829095593190319 8.18109104170655 14.935643210743292 -1 0 0
404 1 9.632845723633249 8.273906425619282 17.053346481361935 1 1 -1
112 1 17.261196714685184 4.577376941026669 16.187670796497066 0 0 0
42 1 14.311606281779516 4.58861979530904 14.312592130167891 -2 0 -1
265 1 13.785565189803332 6.929725216779562 14.322510208745902 -2 0 0
219 1 16.09044196132212 8.397762564214315 13.966844478021754 -1 0 0
298 1 14.922682225195853 5.962777605916193 16.45186335951196 0 1 0
224 1 16.462331132708982 5.884218164201395 13.937537697022602 -1 -1 -1
379 1 17.157519878269305 7.302424802938031 15.87982346757241 1 0 1
394 1 15.182116617128292 8.456924032807883 16.395965487969136 0 2 -1
269 1 -0.09096638420771944 8.95833788540166 -0.2395767383036116 0 1 0
22 1 0.278004265981448 9.415238815513526 14.073455619661349 0 -1 -1
192 1 2.3641574339460916 10.115338244703757 17.95742178115762 1 1 -1
459 1 2.0960113122046913 12.532643998656901 17.65388380538353 0 -1 0
283 1 1.1263085605221592 11.167863457362728 15.661362000518634 0 0 -1
213 1 3.5641108784486613 9.848096410486548 15.658921888756103 0 -1 2
110 1 3.4552719013090374 12.195231650470177 15.40812090355736 0 -1 -1
14 1 0.12269555804971893 13.469973449403575 16.29542850851344 -1 1 0
493 1 1.6332629026963208 13.257622913282574 13.902741751500509 1 -1 1
195 1 4.875264067899118 9.467585616481635 13.574278414708715 0 0 1
321 1 4.623527495162921 11.374631875356503 17.80487330121334 -1 -1 1
323 1 6.777518790741694 9.923312905707057 17.4732649106954 0 0 0
136 1 6.987826638489997 12.733881088500182 17.054438626853866 -1 0 -1
203 1 6.109628853763323 10.894575963529645 15.23517538751539 1 0 0
391 1 8.334509972209386 9.41033410931116 15.160553876709661 1 0 1
253 1 8.282752068662012 12.060757119584022 14.903329236291345 -1 -1 0
452 1 5.754215838177954 13.497196801445169 15.368109470263093 1 0 -1
317 1 9.252602868007473 10.89014898436738 16.779589726536557 -1 -2 1
499 1 12.741310186253815 12.105432532438487 14.557361363588717 0 -1 2
412 1 10.637022002043867 10.746887247598204 14.753374883989014 0 1 -1
11 1 11.5657988153221 9.671804882553078 16.638453123226192 0 0 0
387 1 11.301423992194287 12.241763601122898 16.767050195994813 1 0 0
217 1 13.164104742514365 9.255233063958837 14.853583852728935 -1 -1 0
116 1 10.69082799072371 13.414736919297479 14.455050790187775 0 1 -1
194 1 9.372406879204618 13.57091428041948 16.976968403418 -2 -1 -1
468 1 18.09775208954823 11.453014983689878 17.782117663582646 -1 2 -1
388 1 15.755520316105295 9.978665417960407 17.980401148830794 1 1 0
175 1 17.455846079688804 11.793652244527543 14.36994899107382 -2 0 0
148 1 17.151952791498942 9.7422753911879 16.00191503246777 -1 -1 0
85 1 15.325000247726129 13.249154029479975 14.32265016465724 0 0 -1
34 1 16.032273184116818 12.07755429328992 16.499556380920815 1 -1 1
2 1 15.168771651500778 10.714902700858524 14.692759986655705 -2 -2 -2
25 1 13.845028416891008 10.950653238853203 16.497518114398794 -1 1 0
161 1 14.029143738735343 13.462026074169806 16.59262177167988 0 -1 -2
106 1 1.5396303474539386 17.43287995507525 17.935999071201948 1 -2 0
129 1 3.475061627506801 16.176835908300333 17.836815203195442 2 -1 0
398 1 3.9030127830748365 16.779652090394677 13.5127171623213 0 -1 -1
473 1 1.327621739623033 15.751604465707386 13.840301863941544 -1 -1 0
81 1 3.9072716194751935 14.44954008271321 13.773102241132943 1 0 -1
252 1 2.7529395522365703 17.056451047065714 15.638901588963467 2 1 -2
498 1 0.40138388678482384 15.719392232024454 16.024008593435532 1 -1 0
372 1 2.4993666571601145 14.625095495434383 15.965026334503458 0 0 -1
234 1 8.643647279540605 16.469552088056354 13.227511714074984 0 0 0
29 1 6.281066664906392 15.425788633362409 13.731042126693339 0 0 0
355 1 4.492687080400313 13.818413270936388 17.389962908319703 0 0 0
118 1 4.990816077428033 15.944817826876202 15.796130202736341 0 0 0
9 1 6.839388283506933 15.024944294746431 17.32337771399456 0 -1 -1
90 1 8.200548642683042 14.681205443917612 15.049976040585127 -1 1 0
196 1 5.839348320327195 17.26815604986848 17.835522915321746 1 0 0
193 1 7.333855166123525 17.174434687472143 15.4889627223615 0 -1 0
409 1 9.534516636805781 18.02722503575699 15.352641385082968 0 -2 -2
294 1 9.068244389890475 16.085656310010606 17.028343023746125 0 0 0
58 1 11.619280233967634 14.840725199197067 16.784222412015332 -2 -1 1
334 1 11.981863312881957 17.196385093854012 16.62990374295663 0 0 1
114 1 12.92097461130185 14.802995323843872 14.559056187994498 -2 -2 1
324 1 10.449556885834136 15.811185530518534 14.96823266996721 0 -1 -3
392 1 13.272704493603404 17.339590566815282 14.395076078045314 1 -1 1
251 1 14.910842177130565 17.423412643038617 0.10527278636067594 0 0 2
353 1 17.45200838433766 16.07918561150725 -0.25809221094380186 0 -1 0
364 1 17.654066188726524 17.395906252767922 13.589966406708088 -1 -2 -1
88 1 14.147462723634982 16.092496773003596 16.44927549411201 -1 0 0
165 1 15.692028568167125 15.860493002169479 14.17730186354047 -1 -1 -1
57 1 16.392903765207393 16.947157823943208 16.144306800151924 -1 2 1
261 1 16.25171154444451 14.695727205450238 16.528390477579947 -2 -2 -3
32 1 17.46408426387452 14.353010229640319 14.060067899196293 -1 -2 -1

Velocities

64 -11.22629414178008 1.8137081464303253 -2.2623679755125488
177 1.174406947383994 -1.2812181499679693 4.139439722932254
329 -3.5990526031802643 2.298403346800543 -3.0452052157894283
279 -4.5774791330032265 -2.956354953495569 2.4908315535470815
307 0.864509902622914 -0.4416325399859555 -4.002964068520189
313 0.3157019862004212 -2.6941244789698593 0.48644419520184917
325 -10.084809821266395 -5.341244208966306 -0.36145837061133623
233 0.4003889856735429 2.427274346983675 0.9587787131594907
460 -0.6394294319157765 -0.21576467155136725 -2.3654126601240955
389 -1.0453666663797185 2.012693598566145 -3.1456677200763066
359 -1.4747047770360728 0.23300071557693414 -2.4674577954522037
432 -3.3786302804926183 -2.833450763753325 5.268588997795991
241 0.9056557448767796 7.223312333156296 -0.6069232613894794
208 0.23772914149146654 6.665887301046602 3.6898899590181378
414 4.922521230542429 0.7968775527117966 -1.9849921164553705
38 0.9341639656589763 2.029947614602323 -2.4365831004028187
132 1.3089409516995199 -1.7614109661138129 1.1668041939727947
280 -4.290232028858726 -2.471858151172616 0.7416503896009662
46 -2.237085274714492 -1.0143690855433247 0.8796139401817124
309 3.5076323289615536 1.02491964052759 -6.3778126153778265
124 3.026019496495389 6.635316488440538 -8.332807397670315
442 0.3584719251959677 -2.0698334735098394 -0.7182149785092835
179 2.099354618684952 3.3479840649726813 -0.39666449327797965
380 -0.45950386246486324 -3.2142838256315955 -3.145216681120602
258 0.7048764163197968 1.4481434174687906 5.056309935073912
268 2.1330510123205433 -5.429010215910523 -0.15032228977217285
10 4.023052373209782 -1.5285103687512316 -2.8741176482730832
458 1.6228864744646823 -2.686815007068484 -4.695526750815073
405 -1.2073203308864515 2.542439451402145 6.478690035722225
339 -3.7137090703571576 -3.142511831208604 7.432849837897137
105 -8.740519833060091 -1.1416880578870932 5.903147715113134
415 -1.2077734097815858 1.7480783601433916 1.6303829724847765
60 -0.2449747381322361 4.626133124018401 -3.641850924173734
361 1.207527974412556 -1.0064146790409982 2.131420375729765
143 -3.5832142635803095 1.1609799036629067 3.7090723483855297
489 -1.268578924792759 -0.041992893803241685 -0.44623013555977975
169 -0.03774364557276139 3.5720213029731434 3.9632988412221604
232 -5.9411120615417286 -3.4986914590906215 -4.359468879650873
274 8.265288682053079 1.3020625383502473 -0.2850028904386333
95 3.5293893189430574 -0.8463103495037113 -5.437666753401484
427 -6.284617495046447 -0.2071936251487271 -2.91852818616716
121 -3.4587402712205395 0.742388594315688 1.8971597742338067
191 1.1462104547254013 1.1078368642963043 -1.289778186171056
275 1.2603840396789077 -2.9333786221111846 -4.098264739435827
308 4.429506902078239 0.014929672918991352 -5.813845289689152
17 2.6208500419632155 2.45423909629731 5.505357174826671
197 -0.8557452474022382 -5.359821838097212 -4.6915199985637495
331 -3.8460212123118542 -1.7075925606236249 2.5692741682643767
396 2.825162390973852 1.4011181859390516 -0.8105379634333484
282 -3.0526779024839676 -2.1417207576369988 1.8576201386513722
26 -5.245323018460029 1.991876284624148 -2.789466197052818
451 -2.7686600496505402 -2.6375939157376034 1.9341979031908663
20 2.9483633607129516 -0.338231977671886 0.6989953255217423
330 2.9055422753233757 -3.167426377095265 -1.6185996446003066
156 -6.85149426592053 4.728482838091012 -2.266861145379512
467 -2.141437870999779 5.756431431540518 -3.0610806977305467
426 2.187631155293812 2.2656335322541676 -1.6945546210577
130 -4.1622641467088375 2.535173908371256 3.0973435892351815
137 -5.503356905130227 4.0300025306881135 -2.424708651244174
476 1.776345963973601 -1.587111675786038 -2.72983163652045
211 0.8956181534535546 1.3186726352383205 -0.6874733144521146
122 -0.5588451444623568 4.719263273100473 0.6179444934685309
447 1.4192004673392549 3.9625374453413547 -1.08175375076462
176 2.58372955827095 2.387205808657441 -3.0475687931383804
488 -1.078740715364133 -0.09722951298575963 8.018381914973304
351 -3.3813029639724936 -5.513836019330247 0.5477877081822377
160 -3.5768532209218376 2.59472525886539 -6.11526910999541
48 -6.232887084415307 -1.8452086194054804 1.3525511659590799
471 0.12493287517637099 1.4749402611305242 -0.7902129574929923
486 -4.219801531089771 -1.8092888807959617 -5.305442793606987
296 3.124346434504666 -2.35001830443696 -4.015013882677891
173 1.496861100770604 9.282448311285584 -5.695536081401015
342 1.423590657127312 -4.034232388661591 -0.4632784512384652
421 -3.203838671395662 1.1209794537384876 1.793583534567911
66 -1.4201244757807312 -2.818036466725919 5.039756122373278
142 -3.532457626608019 -6.382272862275051 9.27506182384314
202 0.42420499204720147 2.4766208835847596 -4.952752233803358
236 -0.5982404674948818 1.1940862551099944 -1.3547304380121614
456 -0.6477257668552722 4.739429761749507 -7.7974715817456195
50 -0.35046075522472353 -8.940450875783267 10.812042704754287
166 -7.15476770413183 1.2671638227706457 -2.4931616722421803
231 5.741023902788614 -1.8742287385438552 5.516641501463936
189 -0.5542435311352585 0.9001836456430918 1.3244143809677527
164 2.476048318481308 4.631320413761451 3.440826018693196
437 -1.6117116752875642 -1.2464542872434574 -0.8254272938977122
199 1.4576277587876403 -1.0331231996213983 -1.3121814662169706
215 -6.77708797989358 -1.6229152176279287 -3.3462302828301884
186 0.9298623708510364 1.9135546002501147 3.3157632607118024
133 -4.040168461651279 -0.49933831608700296 -0.06982562940178474
204 -5.273819116120874 2.477836976281764 4.670747976846505
150 4.275753314202509 -2.364775263271566 0.6220432790004466
27 -0.7251112097877409 -3.1754998478256318 -2.4555416152377374
147 0.8668270067741539 3.970284294881698 -3.6413990471129134
138 -6.610504399301366 4.445756293576385 -6.107987292788302
483 1.6920167026210804 1.850074019996267 -0.9031497380295286
19 -1.5736341402618863 -2.980725669836915 -7.4835324555454985
376 -10.060671081392428 -1.1581761214611241 2.6518074229301356
184 -3.2088772002170605 6.814322529129772 0.20966136289467222
301 -0.8096444459887321 0.8870203556236665 4.143350701223502
371 1.5617694037119088 0.8306350651031077 0.5675877854706386
431 1.6049369842473118 -3.7770697047002955 -1.4477117138963564
480 4.218923309843169 -3.7260529831864133 -0.8641224819620609
123 1.4215759607576814 0.9501005663363685 -6.628209234737772
86 1.1366817237452782 1.708530653411049 0.7126482927448635
306 -1.914740874612749 0.2648490966198514 -0.7974946827242109
326 0.9938832303402876 1.111929714852635 6.637287723683337
448 0.4547207788387709 6.9510581626951735 2.1787432806298392
260 1.170262338412914 -1.773484754862503 2.1497636941059053
464 0.122162204198356 0.7536277600667683 8.534406126089682
82 -4.06187220212976 1.0954361610105576 0.20904114839038498
262 1.927227153680528 -0.8129128482016839 -5.6236905366873
100 -2.4893649237509967 -1.795299696984485 -2.068281367592115
478 1.5206597599631297 -0.5528252748381718 -3.734874492432091
397 2.5882367922789897 -3.1751030283615758 -1.0416672976589467
188 -0.3766064663845363 4.099434802894106 0.6431335428374316
311 -1.2276907341655787 -5.505469062201661 1.943088363396174
333 -0.7249488942237547 1.2497089399959636 7.536237296838655
492 1.511588123493288 -0.7448917723712823 1.430228957694757
56 2.123734182321131 3.5663931682007495 -0.6984069742436322
97 -0.5970483281826943 0.23283614242917924 1.4018319189709678
55 0.7138022724846568 -1.2415944565353234 2.3961157453671778
375 -1.602778058212673 0.5970542073023934 2.546648681942213
149 0.18476286053478935 3.6925679547595305 -1.4317483361704355
416 3.4060651995231006 1.455546949268405 2.172852273930709
104 -4.888883498934555 4.221193402281053 -0.09467100696275743
272 0.6815258625974212 -3.1423554214538076 -3.36696761262244
107 1.8960579889033204 3.8375479887531574 -0.7697700717578603
23 -0.5345562805326228 4.001934541380691 -0.5716140185887737
77 -0.6742344361611399 -8.261599497122399 -8.194066202978016
300 -0.1040829277789818 -0.7214088104952814 1.8119657595828593
13 -2.8514539548281728 -1.722705189224749 -2.4187403353010026
69 -2.190189497525384 -1.5138712430237455 2.3009850932868297
79 -6.078446351498216 2.4400692203658436 -0.8063635213582757
271 -6.560561529821667 3.490630617391092 1.7953360440811772
350 2.187265801927843 -8.061081907425333 -6.404004053508256
12 -5.717200663133621 -0.7550869225968865 -2.1151665514921385
223 0.10224237690061945 -2.677091639381632 0.14775197107440347
226 -3.3280169081105377 5.126510072733559 0.6549933287214068
39 5.440368812606546 -4.159391442186859 -2.8637958262569523
15 1.0279098773391508 -2.8876224919084423 -0.7544598649326941
240 4.226264539166172 3.445422903211588 4.380530182280503
292 0.8866490082311255 -2.7569636293898787 -3.7864355716553524
297 -1.4029369318532243 -1.406745183804378 -1.7337048272628894
418 -0.49758330481727747 -7.333360354379155 2.885687504254369
51 -4.321268141991649 1.6501365524906453 4.581612070283649
214 7.5346162281085025 2.309694572902128 5.774374999748737
28 4.250664582644547 3.011755272013129 -1.6896942999099802
497 2.1699692868985996 -5.840995551823623 1.0951888740717155
178 7.147688955248523 0.13433038998853017 2.9544769710006844
98 3.4165550816025854 -1.7575756590134382 -3.1576522238355214
373 4.345413816542249 2.5208465653383256 -0.6847621363968869
163 2.244940564831936 0.4721638607078029 4.865461580482088
395 1.1498363547732937 4.853137669293871 -3.6062502367611176
408 0.4638324026571989 0.7999137990905284 1.9373801194404157
120 -1.3500518337429983 4.796477489996959 2.3073721269110483
481 0.9929593127791334 0.22701856490491912 -2.5101956213142227
128 6.4951410049286205 -6.444940426242704 -1.4209509433615186
162 2.946141735648899 3.4816912018932213 -3.7294483234804736
247 -0.6251491673891784 -0.4556990853765192 5.766329594628992
406 -3.3453106463394513 -3.857482747675222 -0.8749011865954478
354 2.124550868059323 -5.901202031209294 2.9115894458895166
446 1.1793649232555325 -2.1857677056864944 2.7973135612939344
487 4.190558515799413 1.147765374081144 -0.7640074042150513
462 -5.541103355971755 0.9868720552740575 5.135807175534078
314 -3.3222466098384915 -2.4915314640012176 0.38538489460029174
284 -1.358005044244887 5.4550620740820275 1.3566404620622594
24 -3.6169991437461997 2.7787693965603406 -3.123897117467635
87 -1.4828004593326956 1.538298830039804 -1.8694013096998288
310 5.863711216887156 -1.1573553692166505 -0.8722801185319873
474 -0.2859025855941297 -3.4482003145604003 5.036443043239626
54 1.321273986754827 -4.81013295275086 -1.8837640629086576
475 -1.1790630946806038 -1.5670520482913388 -0.25654256759808663
479 -2.9588579623416313 0.6371506528089611 0.2072566941639811
433 5.612635054145244 2.187407367690603 3.297677995399177
108 0.3212248376184323 -1.1701637967391376 -0.5604040069518408
417 1.9532715851621465 -4.055704693984491 1.4958975296548374
455 -2.2813937767998813 2.406729318014571 -4.199969826986063
438 -0.9307149478252409 -3.410803524573878 -3.0257466089278577
44 0.3981149486227739 2.7471197630395325 -2.1977324620819276
7 0.34108517772477503 -7.676231720725529 -0.5542556031876025
277 1.6204595548777379 0.21851958361813048 3.2270838256072336
96 9.404476818138981 -2.2950961943158603 1.8198628586285828
290 3.914289146600025 -0.6785565711387016 -0.2902061649595302
109 -5.999561657544069 2.543379286180009 -2.1003957814766117
174 -3.4820404958059403 0.7293928207209319 -0.636168112937484
461 -4.100241748716943 -1.2422930516661446 0.9324391557433852
256 -2.1093020524889705 3.577469089358206 0.7980781577397197
180 2.544552691302866 -1.4004433964475826 4.761520095886708
228 -1.7178583574517925 0.13254289304734587 -2.2684832209241708
349 -1.2860092733280075 0.2568150971661546 1.7183398848211193
305 1.9385259792740483 2.7181157612657354 0.15506850319354126
430 1.0430224989824348 -3.3687716850799787 -0.16390004472338088
238 -0.7583306331715768 -7.5806905472077535 0.9320125930331912
206 -3.974547748230492 -2.4608835255086166 -0.636932611520775
171 2.0053700750637513 -2.6529268440178373 0.9578787705024431
366 -7.1565365799554606 1.3776427020676671 -0.21767426054636982
444 -3.6697188889183225 -0.6995637588915007 -0.9501231713420298
266 -0.9940261275145202 5.799614375819534 -1.8951817945558906
152 1.886967990473565 -1.0730222592039025 6.09921748748542
312 6.069584077424253 2.5325555879881265 -1.2156724657969558
35 -3.259050921739715 2.6679736134731526 1.5664113251180056
457 0.5745602719287274 0.02377155602444901 -2.8582114212660574
151 -1.022759482412241 -4.737412534627997 2.5888939350513764
367 3.658915744193534 1.6830052260897403 -1.4442328274493768
43 -0.012474921059506693 6.26394233914073 -3.8141798388239874
439 1.5196727120320266 -3.1897596871430953 -1.7004496864504857
428 -0.1805551382006812 0.5205058538104974 5.908666087760496
229 2.415002006754469 1.7652813584748555 -3.1460871085280524
422 -0.10915078890329134 -4.386684335044008 0.8903614901943273
285 1.0765520121924432 -2.83720036172277 0.845830455042909
230 -0.9802007956478761 -0.7084898727156075 -4.19618498540196
33 5.426422262689616 6.496200193479375 -2.1556632766007215
6 -0.23364817489297904 3.763959618272943 -2.399288839307655
210 -2.0651183831985365 2.6069048431874093 -1.5293277376365524
157 -3.821242693708458 -5.68758579143661 5.732385530000029
400 -1.2779429391434798 0.4570309221752433 -4.335003630846442
286 -0.1017421621324443 1.4153281813867988 0.5007293801561934
16 2.6713703317361817 0.7270173630168206 -3.292087644435732
131 -1.5126214746293596 0.5807313938103958 2.2789374824880295
187 1.8192456265841535 -0.42904271330017185 -2.574317259245654
146 -1.1531654183182967 -1.9660061971548206 -4.53356986786934
399 0.9211581875226486 2.0998620799127203 -1.1741052367348506
276 0.1943558737787676 1.669013582056401 6.648555752316058
141 2.839437329543523 0.7494016329138284 7.972798651886133
119 0.26823310028174896 7.874515365333706 -2.66690851746198
278 3.8929957063573566 2.417189281940349 1.5315449394063134
465 -3.1900129669607065 -2.5310858523883324 -0.7892489480924016
419 0.2925773295951998 -4.04431451695763 4.514623310170259
302 2.3108814032958866 -3.2923793490864948 -0.8965839413685787
360 -1.1945560182121073 2.0068443761907573 -3.2236366349668515
235 -5.1056286701835125 4.268044456245761 -0.7579767812239858
93 4.252730959356271 -0.1797903191304906 -2.2946328618302156
490 -5.9735121806605465 0.937383628672294 -3.1061484234499863
21 -1.4692625901634404 6.448222467911715 2.9217257249231148
102 9.593106251667018 0.4673784070004107 7.590389787208694
365 3.60669646265696 5.427153420228771 -0.877442883371061
496 -3.5992714646182185 2.603444016501985 -0.2621102799720716
454 0.828310700516384 -3.9524702967057572 -0.4634595795625368
429 -0.9104011437707354 1.2766741895989469 0.08575994884641609
221 -0.25930386137343914 1.4075971162064596 -0.2199214031239257
249 0.8618085045381768 -1.6555705948137829 -1.2029310385982208
491 -1.8924938877314463 -0.7971385048237533 1.8082527461413598
299 1.9285381802059332 -4.0448054839823975 2.6779085407288017
267 -0.7666052815900811 -4.760992779621131 4.539010309187681
320 3.615982587035652 -4.2589210012294725 3.526731188617408
440 3.754561662672627 3.7534039540626014 -2.839111196800108
76 0.16578095486834013 3.74879913040381 -0.5366956451645202
1 2.463102728418446 -1.9713303106151296 -2.1470820108459727
84 -2.7789882083153565 -0.4683143832127339 0.7352941499907415
153 3.8715772419675702 2.107890581644964 -2.064116245403848
168 -2.6147729195739515 -1.9484112756559606 -0.37655669215094295
293 -0.7953466656976863 -2.4108611127690174 1.7106590848001988
402 1.9805727780797138 2.169812012439795 3.5924415836398116
338 -6.853902237387627 -1.5670069304832193 0.6247306123529062
287 0.6936422338467508 7.652614540977687 0.3927393775542793
61 4.940259923139507 1.155448489977967 -2.0371048416172326
315 -3.3293436804595844 -3.335613618547695 2.2218100411793444
94 -3.481611964423683 -1.4772781215367174 1.2578953377368902
407 0.8005950444392819 3.3897326938003673 -0.045581241840536704
65 -1.6637625200965593 0.6210349140427115 -5.344521979336709
445 -5.306818107184588 -5.179386584895633 -3.866810510005592
45 3.336018611483697 -0.4662771743275018 2.555222620824662
101 1.4556711247048197 -2.6097655377915085 -0.0038635189198961413
83 2.7519971498233646 -0.9667102105524796 -0.7352893128123918
316 3.9663151946641593 2.836312100101094 9.758300117858333
322 -2.2211667960852086 -0.9584151646488698 0.03758574823991219
288 -2.5579136159814637 2.8254753254828597 2.331997772486552
472 -1.8444723381204937 6.554053119171095 4.413246780251938
436 2.8560921393632035 5.152029718400834 -0.5321969221056606
378 6.490199216377144 -0.7678895233756649 3.170921617823497
369 2.3631617603586026 -1.841423607568295 2.7836087553456843
335 6.4824308930759775 4.090975127342592 3.0119912217915825
295 -3.0499021710297236 3.3564546922576945 7.708147383498301
222 2.723678432696652 1.4619314218731225 1.2115983440895535
237 3.6003454681192717 -3.459179190481416 3.144789263293796
348 -5.9601201370632975 -1.268652902386973 -0.9639078743352091
385 1.0921093926168064 -4.70109817610252 3.0050252632761842
190 2.2212165381356748 4.563494619827879 -1.7324648948983692
52 -6.416970453882326 -4.67423608973019 1.9771026331112356
239 -0.20021800971853387 -0.6047657084586473 -2.1030566335597904
281 -0.5018655430438812 -6.500375397626847 4.019464095620328
328 1.0885150991674029 -0.16986134575150985 6.176394973839627
319 -5.567642020832821 -0.659980394824531 -1.0043179109299676
382 3.717989175927024 -0.6997017244145892 -7.536972969959675
346 -0.031160676625214573 -0.560193940505126 2.1016334938161445
201 2.945672379259138 4.051659736843801 4.6100291284820125
257 3.585122756255234 4.380229305902277 -2.2361317932255753
159 -1.6624202937824266 -5.310364919894718 -1.149972377532978
246 2.821633372200949 -3.093327587438822 5.103294189887198
59 4.526731149369158 -0.01330015831644008 -4.349605106911726
243 2.932215546337931 -4.93064583188243 -5.381042397799185
425 2.7460960001359873 -6.255887468508422 -3.412558460774829
220 -0.998892537546552 -3.2754281046040026 -2.900508302681382
185 1.6387598825041443 3.7521323562657702 0.9060895850066544
8 3.1196279750236715 7.413412593590241 -7.664368155625468
92 3.621386125184626 4.089190015119931 -6.886520600683105
125 1.5862193500753465 -2.651176816447079 -1.3642238360496302
250 1.5474965739876354 -3.349913222308423 -0.5813511044285276
145 2.264019782003084 4.906121963229068 0.7451453324211753
291 1.2564123420784497 -1.6617729644754176 2.1873175742563826
441 -0.3996342579698668 -6.489202081944405 2.4321431681683885
434 1.4266181053136875 -2.168693238503594 -0.5075222214412302
403 -1.7257776254168151 -0.2126398282195306 0.14217918547851002
113 -2.9212997372694787 -0.7074699465708533 0.9976518540490322
484 -3.7420627587203588 -3.5833747473579716 -2.1019833531142065
482 -1.4627828994237606 -2.698492619293668 3.5477484382532465
172 -0.16821005546818174 -0.19714510251777553 -2.4570390360456766
477 1.3259498863653967 2.0174660037857777 3.3825834468487277
383 4.059286492115882 1.0560564744910614 4.1646521319378325
74 1.080330309432715 3.2233365340347886 5.579937227467929
244 -6.118861365805566 1.821325368163777 2.1290957755449975
183 -3.849406047418385 -0.3614522306315698 -4.465849307098588
216 -1.2965877640866972 4.185304528508088 -1.750181306038743
5 3.6215321609716327 6.72291361314413 3.416732111991964
99 -4.501167032733211 -5.558621490267305 -0.6299596333898818
154 4.058987637466186 -8.28444472482935 2.7961403831300684
225 5.149134587033444 -0.23417943688078566 -1.7305521149590457
75 -6.224061468048753 0.12573267966375068 -7.403733357554982
135 -1.0158356560595938 -0.9742196057214205 -1.5852914881461282
18 -2.7253623767348603 0.5177732277905719 2.1415680206867482
273 -3.327011789149993 7.113627545387909 -3.8508898701733325
413 1.0520190309980593 1.7456959755916293 7.330012774173469
327 0.903184361669823 -5.823315744391036 2.725417619045369
303 1.568437090635453 -3.782179092363142 -1.609277114097395
374 -3.1256575501620487 0.3072686985334554 -1.4901530862715902
495 -5.963727307642068 2.7632454343328856 -2.1398717449752263
49 -1.0779562425098972 -1.568329941435638 -1.1948886722443277
352 0.6891765819776852 -5.822929933854655 -2.3392492070989213
134 2.598799115902574 -2.252056707396366 1.6223657001805551
248 -1.0673175265427335 -2.033466695604445 -10.62112164027014
411 -0.77300193736067 0.5589850432760362 -1.916101742627131
36 3.611079347037545 3.935374386337844 0.3022285059636605
450 0.9752751692925025 -6.232110886734334 4.278405425425075
368 -7.6122817637925255 2.466891664597488 -7.387452578609226
470 -0.40978370969884614 -4.780847141398133 1.7129717503912005
254 -1.471074242008556 -5.621729806372153 3.336883560868046
485 4.096045448362523 -1.7057507162926677 -4.548447938226697
182 -2.9888590961439703 -2.8327898490241985 -3.1401959813421545
167 -3.822218084513375 2.392209681135721 -0.9111415289694791
358 -0.03832056590394971 7.257694346801042 0.7182971515910188
91 8.388956622581924 -6.322917212884009 7.426504940746542
53 6.719019210580106 1.5068637631662054 -6.245915783018299
158 -2.6751864885320757 2.920848957027053 -6.147627103814138
89 -0.5681075928190555 2.920940879007597 1.9018184140171406
393 -0.6474034941401549 3.374067448899925 -4.81370594619392
336 2.14734639806586 0.3281059734108758 0.4657028630894222
212 3.0637234371182314 6.735144870670652 1.5385433554773744
420 -8.68063138298125 2.993907578082846 -1.2158432600212992
332 1.0512284145178081 -4.711840285708008 4.860308872843241
181 -5.553159626980897 -2.8671974507483315 -3.414323193253082
155 -1.5543643584710938 -6.318742313232496 9.401704112365545
259 -0.39293932155961686 2.0209852554867065 2.91082133225347
401 2.545306709032847 -2.5529168509934137 -1.390921364184454
344 2.753545274354006 -0.7044449031226387 -1.0810084474531867
341 -0.6513647252899137 3.032611769027462 2.772570272228975
62 -0.7654441338388486 0.044215618605292314 -1.3943280058602607
410 2.9945582278746645 1.6058541642769841 9.920744568927722
386 1.2089912525524187 -1.4381705880817552 0.7243443486540729
78 0.3943979053867255 3.134106866272861 3.713869370723881
198 1.5072254201563555 -1.146995110086283 2.0850775457649284
424 3.96444388797676 -3.90402550197117 4.1609522406568695
127 -2.381961534794502 5.527573812276766 -2.5474824116008032
71 -0.7738375257765646 4.71303770225844 6.943413416791514
218 0.6807597695860458 -5.068499204874454 -1.3698608510907826
70 0.11760508377653141 0.4282676563490757 0.8135415361746642
126 5.1223560115355085 -2.504165511859144 -1.543651159269992
140 5.912662407570103 0.5386049728659602 2.7074138752583896
494 -3.7183175673570585 7.797291812860819 -1.3086394948327933
205 3.338185323693948 5.656236722167077 0.10648237551202692
318 5.025551571476492 -0.6094009093769838 5.002198023851354
289 -1.3850299055842217 1.7648047339496578 -5.3430554413665075
337 3.3974040231554916 -4.952192465314715 2.5963797317871817
115 0.20593682859288936 -1.1462112363686288 -2.6199651659945746
357 -1.7767028635712743 -1.5748451134822343 -1.1305444695262146
390 1.657664887578335 -0.13030856915833722 4.890481386774199
47 6.212982623313203 -0.5416845156842713 -2.9316280063774443
255 -8.761673633969316 1.4567086235717543 0.7231171595771295
466 -0.3788251685990085 4.391602225687853 0.9148238660109422
209 4.397508367337642 0.3612370557348931 3.775272956490533
144 1.057236971274743 2.913582370286196 -1.978551592910668
443 4.442556521140535 -3.945902687069823 -2.5997085385880108
3 -0.442534184903477 -0.18241947213547324 -3.0950885469630944
37 -4.879721503223741 4.194101396939908 -4.101042952860111
68 6.809703305432616 1.742317568032714 -5.72444185130888
463 1.4258240834724254 -2.536959684368188 -0.11650321585487901
242 -0.38786010506885676 2.7722567582522006 -2.120593269080998
31 -9.069973291870223 1.1380180956340509 1.6911289440962423
363 -0.2538751393141811 -0.6444385292880416 3.3104218033262494
227 -2.1467297959310083 3.9062719763293328 -6.32666910691428
377 -2.05989041765263 3.1480062112648373 3.26623477383797
370 0.7159057710435294 1.992576158421641 -3.7199878888794378
345 -1.6963175318872545 0.1320041233565073 -2.571075549235657
40 2.7865135058332755 -4.34861743641621 0.643332874662152
80 -3.4387338140366883 -4.564619673154926 0.7768392672664141
469 -3.5834281348062342 -1.2042000638563422 4.404177082976243
347 2.1043277189451217 -3.699439776482769 2.459626083681485
381 -2.064328957364051 -3.003159196734229 0.31996758255482555
67 3.742514232811915 4.582988472216431 -4.009934620683586
453 -0.5828285204257055 -2.2492688566924652 4.900881827914768
362 4.496349769328998 -1.1448425198801477 -1.4305458264152389
435 2.1306183196072412 0.4955837766200849 -2.5721688267679554
245 0.07192004792796795 -3.564423888212146 3.5599951981663183
449 0.7750021439281912 1.2983651706918624 -5.24116182808616
304 0.33492601253255877 3.8252310267455103 -3.8593438838055762
72 0.9130782334882696 -3.404751395817105 -2.528648940763825
200 0.5826874860465365 4.369287523523844 -1.9198545919906107
423 1.7875903216198223 -5.320093590197716 0.6113051464758995
63 4.450324333686572 -8.233332258733556 -1.438693430939339
270 -1.587073236134807 0.035139813689181634 1.540765279298781
103 -4.991698504063954 3.891439993489761 -2.8252679960471627
111 -2.838895771936562 1.566806229701477 -0.7872404264095986
117 1.2469254218830315 3.4065428681498533 -7.0330439632724255
384 1.0356682444644885 6.008907475504313 1.9176621992524834
340 4.8445701579313685 -2.682182322434258 7.1134952526623145
207 -10.054317807812335 0.9203580669504958 -1.5448122056939595
4 -3.8830316154745512 -0.2437894108280022 -4.199743627465189
41 -2.67458157429849 -5.304959734897752 -3.9857390979314826
263 2.8814371872043845 1.185492112563219 -1.6787510558990077
500 -1.9863519449907943 -1.4583229738880172 1.2915749724251415
356 -4.0560121282757775 4.96645635698419 3.9518808882748697
30 3.745027127956225 0.41667365733457745 3.5269692146699714
264 -4.128074890281853 4.586476309993782 1.1578606727926288
170 -1.787399474552732 3.368429756060262 -0.17268021967512012
343 -3.555103782149958 -0.8414439862341248 -3.9309343180929663
73 1.7534152582944353 -4.358526947968353 0.03577927098784678
139 0.839638692406825 -4.447007099660437 -1.6055394911800314
404 4.2445113287049585 2.1248270330495638 -1.204937825289142
112 -0.04718856597374846 3.9197597090989094 1.2726004559863524
42 -8.42067859934106 3.100117545357646 -3.5128210228477164
265 -5.250647879488518 -2.842486892002497 -2.2181926297690846
219 -1.0126096228406127 -6.7869883348938895 -2.9493866869564083
298 2.10333171493576 -3.7276396178467817 -2.85286687527453
224 -0.03474448049968145 1.8764714601059111 -2.672298525867022
379 -1.7299934071798893 -0.827812316182089 -2.803965394181204
394 -0.5196697540813194 3.480951454589883 5.668193550475456
269 4.2209020244735225 -2.5983399623581804 -1.0725113393529218
22 6.070510021737619 -3.3832368698647626 -0.17057076723122908
192 1.6302019625022308 -0.6171345084776579 -3.451279300930625
459 5.252767838035423 7.666079522576166 -1.16970686280495
283 4.7228561561736555 3.9647497299940757 -3.2012383687501162
213 4.310285723487621 3.943883342714374 3.40650462458382
110 9.570451710111591 -3.5764047392607976 -0.13515645917353786
14 -2.751150455221857 -0.03685891385103909 -1.5749261525471874
493 -2.462674765696547 1.8476173090845538 -3.623814265797171
195 8.25377102593873 0.9860768652418075 2.9894075562646476
321 5.744810709111518 -0.17436761776378515 5.249634208725572
323 4.354080471987964 4.09471324412513 -0.5126967071906041
136 -0.675245350199797 -3.029855681058704 -1.1469419798934362
203 2.6484700063584805 0.26054319981731056 -1.341360625343576
391 -6.864646891854499 -2.348732887863081 0.06350728507565934
253 -1.3117751196458196 4.682531393249927 6.828560967868909
452 0.3346308935636547 -0.5976038820681456 2.8496697593034206
317 3.8299750443059732 2.6588693150703446 -0.8959188212716777
499 2.8549090398503654 2.0393988167428017 2.0213007338040767
412 3.2862765707570687 1.806556793259414 3.1297998686806627
11 -6.029941486557177 4.293819727735188 -1.9253089292923615
387 -8.49523116244387 0.11390094612368581 -2.639995064621943
217 3.633743540296205 -3.3923247420595795 5.283127651049528
116 2.1034269739718856 0.4435479084362549 1.5904324103383511
194 -3.7996930639123785 1.2068444878511884 -3.1328780815876685
468 2.614344451384872 -4.106001530523289 2.0535726746882674
388 -0.40611047063931943 1.6396323671603958 0.44286353756955366
175 2.0835636211749913 2.8356848904920504 0.5288563633730465
148 -3.5702496358705473 -0.3038595416066865 3.8131563265512165
85 -1.528933077950129 3.8231243782056437 2.4249029040431056
34 -1.2534580628909617 0.061766399286878 2.2797649171089773
2 8.467163323447018 -1.8883260570842098 -8.155271003231414
25 2.1711625128038365 -8.55016625240423 -0.24882496461976028
161 -4.581307393051207 -0.06592976104593189 -0.6178850776466013
106 -2.953198733356185 8.323792633113909 -2.589019001907606
129 2.2358005008144426 7.901409585085195 4.330781786481534
398 -0.39015261599232653 2.536560352654112 5.697310862193404
473 4.827813939109758 0.1491147622173204 0.48308691835251394
81 1.8962883065118357 -6.063671509308431 -1.2413646597321797
252 -6.360627600929976 -2.724644590444051 2.37112154268995
498 0.8107094270128615 -2.673542179339441 -2.5531089914692267
372 4.215435616380866 -8.844082362081792 -0.5524633616269529
234 -2.9579181716003102 -2.5763302726981863 -5.639092895670781
29 -1.3327497637453214 1.4743672911172865 -2.2153490056182124
355 -2.9220930487248977 3.4453870939027427 3.9356189998193423
118 0.7502424088622058 4.378369034896221 1.6410747400934877
9 -3.980670241879683 -6.53502595766503 -5.809247306769377
90 4.70828343083842 -4.971429278316843 3.663554148286454
196 -2.212853190031352 -0.15247940951498712 -1.8439072153644824
193 -3.541119051004346 -2.8546597825608235 1.1874351621272332
409 -0.769580066811497 3.924775545421919 -0.6126965641289995
294 0.3850762440424233 1.575835289678632 -0.28613139764804824
58 4.779583710164856 0.4468989635987864 -3.995798059241805
334 2.292570639714013 -5.4035567549237 3.301907259777369
114 -1.2907303558289143 1.7199410497841165 -0.4913020760988993
324 0.5087121318263775 -8.461543065354036 1.3476407776569623
392 4.014492549280151 -1.4619466786115725 3.0666075857954675
251 1.8797894562677606 -0.6188303631539057 -2.642573160770472
353 -4.5553833907843595 -0.41198239437602785 -7.190223724028283
364 1.2150082123846582 -2.4655007169980356 -0.034134817218514635
88 -5.2039344312458375 4.476839110152877 0.14291021194863185
165 -2.2537006735156497 0.9002473000669193 -0.1470600158264459
57 2.353652432419618 -1.4854658848286066 7.758686488453558
261 2.6021275199915586 -3.166232647018798 -0.8823317232006906
32 3.512498222489228 -4.199615452566949 2.9036981812880733
