LAMMPS data file via write_data, version 22 Jul 2025, timestep = 1300001, units = metal

500 atoms
1 atom types

-0.39120723121816603 18.278360581218408 xlo xhi
-0.39120723121816603 18.278360581218408 ylo yhi
-0.39120723121816603 18.278360581218408 zlo zhi

Masses

1 63.546

Atoms # atomic

424 1 4.105626876967683 0.12443618288698888 2.3602900234215376 1 -4 1
203 1 1.3246284101039743 1.077236826265395 2.299919955865703 3 1 1
495 1 5.093546365427602 2.0762795166711006 1.3137514641039088 -1 -1 0
242 1 2.889624297289269 2.783197704585145 2.0801758739965366 0 1 0
356 1 17.8153852407182 2.6751889579155095 1.1348713547452125 -1 2 2
117 1 2.850064228796025 1.1706444319622142 0.46351729327592583 0 1 1
210 1 -0.20066696820732943 2.6314200470765496 3.49792155375639 2 2 0
218 1 2.2568194771727237 3.4904366376174596 17.976971290593177 1 2 3
448 1 3.457118908755172 2.357180076876328 4.324633456762653 -2 -1 1
441 1 4.494166931232587 2.2616715688905615 17.625436969932515 3 -2 -2
228 1 5.831350520263736 1.9042353954939713 3.5991242993076615 2 2 0
371 1 7.0424974596744985 3.8455725498121156 1.2757374176903638 1 0 -1
412 1 7.769832208851751 1.4494831808742745 2.1350207626923643 0 3 -2
27 1 9.438944430203641 4.045467935333043 1.641510991053163 -2 0 2
397 1 6.256431725686361 -0.16532605612299883 1.1097850063064654 -1 1 0
219 1 12.275218393930183 3.2385673913426567 1.6390027450598676 1 1 0
326 1 8.952226678323756 3.358771966776716 18.095720947358124 -2 1 -2
199 1 9.729677450645992 1.2662252734377273 0.5761575246471856 1 2 0
357 1 10.017694736737448 2.0147208636255898 3.0019203900640608 -1 1 0
287 1 11.557726002470915 0.48455303609524325 2.0750918009745725 0 -2 2
151 1 12.690552347790263 0.6835834920361221 0.240191509160957 -2 0 1
158 1 11.042069397192758 4.447808487614994 3.470871487191405 -1 0 2
175 1 12.171018638971205 2.3527346279983874 3.797106264946091 -1 1 3
438 1 17.74098739891118 -0.08714860529015861 1.4894167777239928 -1 -1 4
481 1 18.009623252642605 0.2559327804323066 4.0269003647979495 0 1 2
251 1 14.181743414495369 1.5276393575202112 1.9937736172017648 2 -1 2
252 1 16.16090904616702 1.1418600777224053 0.2932359516278539 1 0 0
52 1 16.22684453631843 1.4179379574958144 3.262355780176584 0 3 2
161 1 15.210130739026289 3.581836499756801 1.3048365633942505 0 0 3
485 1 15.689711173106188 17.471715399661313 3.374220438321553 0 1 -1
338 1 14.38146406914708 2.2711350478957755 4.839801990487239 2 3 1
3 1 16.555509870680808 3.715824876961098 3.4713982348762955 0 1 -5
13 1 1.06562616462163 4.018419516156366 1.2464011949745506 1 0 1
45 1 0.846748773503379 5.751787224502323 3.370728857659715 1 0 1
179 1 2.5848540295364772 7.9075537905976425 1.5900325946316147 2 -1 0
133 1 17.957007724032714 4.641622644548556 5.024711607057825 0 0 1
333 1 0.56143472595939 8.392398556255026 3.6524946970399768 2 -1 -1
489 1 3.0315859708958057 5.315099364869727 2.3263021399869372 1 1 1
380 1 2.452290299429273 6.0783004452640546 -0.29258170233659797 1 -1 -1
225 1 2.4552828560073974 7.262759351373336 4.098380478503989 -2 2 0
79 1 0.7364465549718602 6.457167234533333 1.2688526624034906 2 0 2
294 1 5.3072314096293285 7.136012808548376 4.045181224614219 -2 -2 -1
486 1 4.70538763096396 6.908129245848167 1.8036266594182133 -1 2 1
497 1 7.713860998897571 5.758387973139161 2.4975192820308796 0 0 0
147 1 7.388305041656113 8.052028356948716 1.8537181836561079 -2 0 1
334 1 8.545115092545677 5.779500709393872 0.11428313966695758 3 0 3
317 1 5.209274532254514 4.2988549835527445 2.946241439178008 0 0 1
455 1 6.3612462565941685 5.954407319746612 0.3598862920862024 1 -1 0
157 1 7.684029705995867 7.677837883716263 4.47773256995687 -2 -3 1
403 1 14.222988756148183 4.395744863011663 3.213786759126575 0 0 0
250 1 11.121741082871859 5.458401785471136 0.3244247108359368 -1 0 3
321 1 9.743596209789382 6.653203591320592 1.7881224392084376 -1 1 1
5 1 11.628461640486247 8.348788577279969 2.0458617507430907 -2 -3 2
78 1 12.788390406935607 5.884614263949801 2.1007035989305503 1 0 -1
221 1 11.122297482265632 6.744687221173644 4.134482520695653 -3 1 0
344 1 9.461570996401031 8.627723737737373 3.123598787043011 0 0 1
376 1 10.024776321817923 6.939076191589777 17.338430205490063 -2 -2 -1
191 1 12.393497410266688 7.735426060650958 -0.12179170982762533 1 4 -1
341 1 13.444250019605484 4.991816441016186 -0.26577377622327136 0 2 0
289 1 17.364321837066058 4.89015094199707 1.5516488261050494 1 2 -1
29 1 15.849904290321279 4.688057576306823 17.790460687859394 0 0 -1
12 1 17.488305079502773 7.0932758675234355 2.892285754153936 -1 -2 -2
394 1 15.285188200659048 6.1317910360354135 2.021687560182782 2 -2 1
318 1 15.921209547997998 5.772898676311776 4.447469074767164 0 -2 1
198 1 17.294928610830773 6.93079670871215 0.11582300338714435 -1 2 0
2 1 14.231164075163239 8.507847569707042 2.090861878442232 -1 1 0
88 1 0.03317144767258262 8.830480929615021 1.1556653803528618 -1 1 1
35 1 3.966481478170383 8.944363576779647 3.394477459192965 0 4 1
261 1 1.7396300838510004 10.626799144205926 2.3135453317765706 -2 1 -1
302 1 3.285611802399387 10.312677691561223 0.5895995725322704 1 -3 0
428 1 0.9228596586081441 11.698769077519453 -0.008976571168222203 2 2 0
463 1 2.453529062894935 12.681327053008753 1.3749589918626899 -2 1 0
190 1 -0.07335525062019982 13.107469134137911 1.757731037816753 -1 1 -1
138 1 2.1846189070273914 12.812331270950626 3.82088593635871 3 0 1
491 1 6.456559278743928 9.637412412477001 3.6267406293275934 1 2 1
389 1 5.305614143384329 8.943592616942373 1.0736159353816301 -1 0 -2
400 1 4.2568706636512585 11.517439322945624 2.6612968695533183 3 0 1
255 1 6.471951198766743 10.95886538749987 1.3318135767419594 4 0 0
419 1 8.471997454838492 10.710158550850734 2.61181895597883 -1 1 3
369 1 4.980745967877647 12.474390122884898 0.47951930514805885 -1 0 -1
1 1 7.744792524639601 9.566822924244342 18.141060711904274 1 -1 -2
21 1 9.779268963855925 8.84344445795317 0.6904382229339461 0 0 0
171 1 10.867782582231293 10.659757717468779 2.2250345959986375 0 2 2
110 1 13.083171817350014 12.646187099505768 1.548113261722552 0 -3 1
353 1 10.599175237279999 13.10523733754167 0.9955517225971824 2 2 2
41 1 12.227568121691016 10.004903125887752 0.3286839104128103 1 1 -2
155 1 9.47119337530932 11.210470471855668 0.1529157188427379 0 1 2
425 1 9.018985565052668 12.916401999046029 2.976614889758118 1 0 -1
20 1 12.895384299663084 10.7897342687316 2.9381098304733797 -1 -1 1
201 1 11.472679751840438 13.082081888334027 3.4594489198529215 1 0 3
9 1 18.22501268612468 10.751215120069158 3.276277857213252 -1 0 3
382 1 16.031773264727754 10.638351800738599 2.9032787594627565 0 2 -2
142 1 17.516894239034023 11.08820048437183 0.8769482896450305 -2 -1 -2
413 1 15.208271085528068 10.24271196223387 0.24139595241621292 2 -1 2
107 1 16.46652570026219 8.692937654749134 1.6011896553961846 1 1 -1
119 1 15.832968480537668 12.633451038778768 1.4436774554307519 -3 -1 -3
426 1 14.090148986758937 12.677012616461631 3.681045320679976 0 -1 3
324 1 1.4258034741112675 17.259913241207656 2.203880407302792 1 -2 -2
457 1 0.9172118618056835 15.132154380511299 2.588616348485544 4 0 3
408 1 2.739494332297681 15.745755430977935 1.1510147030657563 1 -2 1
409 1 4.011613423103772 14.040447872810944 2.3670994980464126 2 1 2
159 1 3.215235630652799 16.78878975618889 3.6023645806335565 0 -1 1
32 1 17.080425388177225 14.827224311090832 0.6520637280068551 2 -2 3
336 1 0.24181808616291955 16.622946274003773 0.055564791562035865 2 -2 0
39 1 8.36528412231232 -0.3160529579963338 -0.054838332273758894 -1 -2 2
54 1 6.563151055837487 13.66153117067547 2.5624576546552214 -4 1 -2
134 1 6.913586842814326 17.686904910272204 3.3316996959036382 -1 0 -2
51 1 4.290987586699756 17.40511978994506 -0.02142860092278842 1 -1 0
337 1 5.496330355342974 16.287120400760145 1.8443729733981762 2 0 1
156 1 6.0559888254283205 14.4385862373781 0.352654667516899 2 -1 0
421 1 7.920754712571627 15.994309436061249 1.4987075442220463 4 0 -2
60 1 8.312440602843008 13.361702475545094 0.6685626012823287 -1 0 2
84 1 8.029257633331833 14.947071284629999 3.924898955172634 -1 2 1
232 1 9.372437415216968 17.885528033053937 2.353613576644335 2 -2 -1
263 1 11.527932083202396 16.930662622150997 3.3973014995135538 2 0 1
174 1 10.509590269027617 15.027799558310983 2.3613885579976306 -2 1 -1
361 1 11.332110740600728 16.98310264096191 0.7046254932143383 -3 1 -1
200 1 13.010229538816494 15.071650764832663 2.2081337639525063 -2 -1 -3
56 1 11.857282629698368 14.82800502952106 -0.21199217841981097 2 -4 1
130 1 13.553046962499256 17.70373364443845 1.6420002020624178 0 -3 2
204 1 15.32538199210554 14.803033026345728 2.8531653427801986 0 -1 -1
128 1 17.471106356668905 16.197706446936657 2.4723577958811584 1 1 3
401 1 17.74333920580898 13.989500553591826 3.9396946830912842 0 -2 -2
122 1 15.697838156686617 16.992208909822864 0.9133054981271806 0 0 -1
176 1 14.78053602990174 14.706943238422474 0.2699877450520274 -2 -1 0
487 1 14.918166449382467 -0.31606430641758393 17.816952141049057 3 1 -2
141 1 17.30073519569725 2.3096791394902945 5.776984181644904 -2 0 -1
423 1 3.97153226367384 2.5080172221305492 7.760128918569306 2 2 0
104 1 1.729689703188464 3.892474362866726 4.203400611867707 -1 2 2
383 1 1.4824158842121125 -0.3289354105368138 4.433549399749179 -2 1 0
126 1 0.3065106259710144 3.894891717907841 7.126176179033105 -1 2 0
120 1 1.3170447134587127 1.6829220810598229 5.849598693874988 1 0 3
349 1 3.4508774110125295 0.5335232086124676 6.178579364723844 -1 3 2
304 1 -0.2057324608801327 -0.20790047161655423 6.439725254319273 4 -1 -1
184 1 1.67483387832679 0.5329018134128353 7.869787687313982 0 -2 0
18 1 7.985148202455424 3.6665519990352724 3.6337029199709114 0 -1 -2
139 1 4.93414197312626 -0.26682204710976976 4.463246411680805 -1 0 1
30 1 8.403015144950267 1.1813372171575007 4.50703997767021 -4 0 -1
335 1 5.040184327385343 3.5633848412413824 5.6343772337371565 -1 -1 1
325 1 6.190479013891265 2.0538477767619536 8.460660556379516 0 1 1
483 1 5.799807654956552 1.3592185356136062 6.144450813986596 1 2 3
68 1 7.637796852786142 3.689482019776161 5.903850896481304 -2 2 -1
440 1 8.411556495518363 1.4578269324476987 7.008150377441367 0 -3 -2
34 1 4.769565226941395 -0.2500641510417874 8.011155536116018 -2 0 2
182 1 10.093912782897204 2.8808401254976275 5.387048788406151 2 2 2
313 1 10.853714011939513 0.8982541627888434 7.653958791900161 -1 -1 2
494 1 13.389067310905375 1.00941224761322 8.758921130908059 -2 0 0
73 1 10.045329155696447 3.4574890809275045 7.889517021089754 0 3 0
320 1 12.158247125747817 3.1269007603247365 6.8370361988472865 -1 -2 2
271 1 13.04858958893709 0.549987582715427 6.5510497722724645 1 1 1
116 1 12.985836044132883 4.740853779449852 5.339197676097588 1 2 -1
22 1 10.798239214626893 0.493955285813804 4.844111556159479 -1 -1 0
145 1 12.240030122541075 2.9210012236480556 9.336042853086234 -1 0 -3
101 1 13.309744167790626 0.04084827585557782 3.9416792562603806 -1 1 1
211 1 14.597783877291217 2.2928075981363625 7.334650670747679 0 2 0
282 1 15.888284691539907 0.4772340014929999 5.70542899381707 1 -2 1
37 1 15.798163426747754 0.39609911718461044 8.290962773999537 1 -2 -1
132 1 17.995547854441583 1.6332685417282797 7.994097120041436 -1 0 1
28 1 16.77402952661795 3.740366543668223 8.029281221321396 1 -2 4
165 1 3.713481904375617 5.799017840930834 5.469252128645886 -3 -1 -1
59 1 2.55138629681971 3.9118039548133243 6.657912318981071 -1 3 3
439 1 2.4759648287239413 8.338528391100365 8.27376396522419 -1 -1 1
427 1 1.4970488619996698 5.9617859561597415 8.397005330675908 4 -1 0
113 1 1.160058371318213 5.942766476281339 5.972663793697417 -1 -2 -1
417 1 3.7640344778317365 8.495634989518477 6.224701337215073 0 2 1
390 1 -0.2883367543108277 7.851309608733514 8.059597935630576 -1 3 1
85 1 1.1238558396656686 8.34935964305779 6.146920669173547 -1 0 0
194 1 6.234442134221174 5.18540489299879 4.831958546652494 -1 0 -1
7 1 3.825494668980224 6.149879505348127 7.841718931234482 0 0 -1
270 1 5.616516547871962 6.54598179132509 6.6682433324888235 1 -1 1
447 1 8.22836267926425 5.332367306370856 7.4129222547100175 -1 1 0
188 1 6.970748019250197 7.345194126926625 8.307536939774746 0 -1 0
125 1 5.777490156403439 4.472756504924255 7.756700312096179 3 -1 1
65 1 13.726730375090236 6.826044195110848 4.280507186981092 -1 2 -1
451 1 9.074114286559976 5.465632084755147 4.533153137874181 2 -2 -1
66 1 10.043805263472237 6.844668642586039 8.194384050138742 0 0 -1
244 1 9.54804520556589 7.568197940932562 5.848014497371199 1 0 1
316 1 10.586644921946158 5.209370319756459 6.285811169094027 3 -2 -2
480 1 12.179159304096283 5.300930995663546 8.025133339754344 2 2 2
414 1 12.02336552736525 7.015040247149251 6.283040982559464 -1 0 -2
124 1 12.249355903384913 8.937745261631177 4.514050987014163 -1 -1 -1
377 1 17.755953005953508 9.881995382535598 5.629405703093036 0 -1 3
231 1 15.538731684127704 8.410808292465255 4.3206433938031665 1 2 2
111 1 15.140877634868476 4.106235453243514 5.901016908468675 2 2 1
472 1 17.81942714150175 7.273806577287681 5.184467708542857 2 -1 2
8 1 16.106587133195447 7.991961708509127 7.112278378699416 -2 -2 1
332 1 14.79752872564902 6.205065411102557 6.590672405562001 -1 0 -2
461 1 17.097557676404293 5.610868422031246 6.8780566095964035 -1 1 0
25 1 13.742324449624823 8.553318726407715 6.536328010967823 -2 -2 -1
38 1 14.948567536642834 9.275560688350243 8.786449393373427 0 0 1
410 1 14.197727107890092 4.346850124887655 8.496626780728786 0 2 2
343 1 16.735446222254772 6.797109730387784 9.101492630077786 1 -1 1
154 1 0.31793314115651505 12.222624776565253 5.392264260080508 0 2 2
297 1 1.841492571539956 10.381814367236146 4.6849049877396105 2 0 -2
280 1 3.463077908361813 10.454342085515247 7.516807329431966 1 -3 3
62 1 1.1105568158925665 10.637060715187507 7.040267575148196 -1 2 0
375 1 2.949717866033958 12.433575819826125 6.3615840708185765 -1 2 0
265 1 1.240465205315828 12.63183799523637 8.337622390003219 -2 -2 0
75 1 4.246733474182863 10.764473834117336 4.947303504715567 2 -1 -1
275 1 4.884629461504802 12.964707482817637 4.375759660781313 0 -1 -1
64 1 7.228779249122034 11.9411106370828 4.593657490620235 -2 -1 0
477 1 8.996677159389167 9.006654847377161 7.85826588111566 -1 0 0
143 1 7.615138707491955 11.33629467424098 6.997072911347867 -1 2 1
456 1 8.384076340449953 9.920310409417167 5.321795417285673 0 0 -1
249 1 5.265579702729823 12.145179216765372 6.786015647378478 0 0 1
209 1 5.971147332621551 9.430415760917537 6.475111203988803 0 -4 1
192 1 9.291695480290812 13.382037777550448 5.773535765996823 2 1 1
365 1 5.311681098664101 11.55837796178139 9.021491663968153 3 1 1
106 1 11.061704881910723 9.191758767742835 6.592368177971855 0 2 2
368 1 12.495052370799621 11.536820783831155 5.216727690746884 1 3 -1
496 1 10.252831117774809 11.276592648488437 7.126063581557186 1 -1 -2
36 1 10.296205550882776 11.144270643196778 4.40481141399977 0 0 -2
83 1 13.05941890368242 10.718788081598115 7.5789102151686185 -2 -2 -1
183 1 11.313211032311077 12.478456427206075 9.008558698736596 0 1 -2
202 1 11.653910790658635 13.23846879450257 6.699685868145755 -2 -2 1
96 1 17.069948893248963 12.723110576731417 7.1822817756735295 -4 0 -1
462 1 14.50039703607522 12.853342270821512 6.573806041914531 -1 -2 2
314 1 14.629371241687894 10.551006208893687 5.161891122416037 0 -1 -2
264 1 15.980440448929924 10.386835841915726 6.941999193916793 -3 1 0
352 1 16.210434036178683 12.323977497988 4.91628491743601 1 1 1
63 1 14.961807644417119 11.76730264203763 8.73236994465377 -1 1 2
70 1 0.14459589467516043 16.59930679706325 4.721633929254354 0 -2 0
81 1 2.2525551305173295 14.88593243681987 4.8968333887355735 2 1 0
19 1 4.089850345743461 15.721823981181542 8.444543184688158 0 -2 0
216 1 2.031040474454444 17.076741570962852 6.393346579468462 0 0 2
195 1 1.9960948145582016 14.69477333539187 7.3197266992819126 3 1 3
262 1 0.6340177632855395 16.639618245262064 8.232990327994974 1 1 0
358 1 5.275067863391871 15.632503882748557 4.266330350226626 5 -1 0
476 1 8.164332596141842 13.347376311430956 8.338272477736174 1 -2 1
281 1 5.882494044418989 14.14271246910749 8.09284818155073 -1 0 0
346 1 6.644621850936653 16.30926951558297 8.00336778495975 4 0 -3
206 1 4.266525115573342 14.429693994895548 6.260470459562442 0 1 1
445 1 7.164745253508253 18.15174624396142 5.9254561729581585 2 -1 3
284 1 6.771442695251937 13.96312484604957 5.751249675943409 1 -2 -2
207 1 4.427947822024278 16.83423968219539 6.2174298363203215 -1 1 -1
26 1 8.420131800215216 15.49105386068861 6.632510180211815 2 -1 -3
67 1 7.219873325428503 -0.20036828713857782 8.498122722119152 2 0 -1
14 1 8.225835846860994 15.843951503453377 9.2680264589421 4 0 0
345 1 10.306520190030994 15.25786472123278 4.891167215245808 1 3 1
86 1 9.215392575678603 17.500072220975554 4.781241563552828 1 -1 1
71 1 9.75505598272132 17.521934317611 6.997928450410098 -1 2 1
292 1 12.815861730832959 14.517044696675867 4.635979952275572 -1 1 -3
108 1 13.396876260932668 15.029285528011306 6.898384825102494 -3 -1 1
236 1 11.886156073799313 16.90558307845958 5.879673296426492 0 1 0
168 1 10.250368143604428 14.677026213403852 7.972041334512532 -2 0 -5
230 1 12.067726813690127 17.560710673469806 8.602078399614623 0 -3 2
303 1 14.61825960650623 17.18603769804644 7.253017186270922 -2 -1 1
31 1 14.189961583283488 16.678114133842264 4.974599924186716 -2 0 2
482 1 16.08427741156435 14.749660146235934 7.685889977454414 -1 -3 -2
416 1 16.863368957488326 16.599639666390893 6.19787892420361 -1 1 -1
80 1 16.99208431468059 16.904311093137252 8.60570297504352 -2 -3 0
103 1 15.683439325435044 14.66357173768997 5.108271165986956 3 0 -2
245 1 18.077450649125733 14.602418725166672 6.373328097612863 -4 -4 -4
100 1 18.048652405680244 14.584527672579407 8.849685069228471 0 3 0
226 1 1.1802568792347135 2.9070564625471964 9.013012013570952 3 1 1
378 1 3.1177213840230933 1.3830523057249993 9.902855664145623 0 -3 1
277 1 2.0430911318849865 -0.1238676110756824 11.92144269228418 -1 2 0
449 1 2.0895928514976423 3.1862362567214535 11.638024213338168 0 -1 -2
359 1 1.2331933570735911 1.5619973921247179 13.175497277884608 2 1 0
72 1 0.45041446454402123 0.9290257414091507 10.132554664389987 1 3 -1
17 1 3.1723549961486595 4.257925431473187 9.548580273992988 1 0 0
492 1 4.111016800812114 1.0933147320074132 12.033984377679253 2 0 -1
373 1 9.20739182131066 1.6772674909439322 9.737334893980474 -1 0 -1
53 1 6.155208857715873 -0.20969275360330883 12.714304981247267 0 1 0
308 1 6.0862448469864505 1.1796350296002918 10.653135854207479 -1 3 1
92 1 6.441756267800358 2.1496812600067967 13.400364378349664 -2 3 -1
309 1 8.446663439992474 0.8633850955031928 11.630054189278862 1 2 1
470 1 10.063007520449855 2.537729722508096 12.37295726309016 -1 1 -4
227 1 4.963690016253988 3.1248616295056992 10.778999095716324 0 1 1
267 1 8.060318055719527 3.225999628178178 11.258878113270065 1 2 0
418 1 7.888375722422708 3.53723909892763 8.817839699289836 0 -1 -1
46 1 7.888258482361387 4.3620831245636795 13.615317556996754 -3 -2 3
387 1 11.448185791160622 0.5029774923993439 10.262811081713826 3 2 1
6 1 13.154342542910046 1.7837324356660327 11.544399905836437 0 0 -2
393 1 12.015659236779582 4.111301392284298 11.981887563688451 2 3 1
197 1 8.873524154385708 1.5509231744516239 14.113663273203166 2 1 0
259 1 12.868951549000956 -0.2374063595571245 13.60245907130757 -3 -1 3
468 1 10.40549608606494 0.18574332420755613 12.74731628651674 -2 3 -1
430 1 15.31011648701046 2.2834903338503576 9.777806437001914 1 1 0
164 1 16.89740419978056 -0.19624653630783886 10.376531823192428 0 0 0
473 1 17.23570448181301 2.4987970226076994 11.13456272823454 -4 0 -1
268 1 18.19533206511494 -0.07364629767520081 12.373599767211232 2 2 -2
40 1 15.187095640160114 0.9308093605779655 12.28923057329162 -2 0 -1
169 1 14.693713622645255 3.4752904492474044 12.052839751829987 -1 0 2
331 1 -0.131995308808055 4.048005097344605 12.308253378754754 -1 -2 -3
363 1 16.686703653074353 2.6776358033513836 13.855300243197261 1 3 -2
283 1 3.320295492907972 7.189414041898601 10.07172722730723 1 1 1
446 1 3.6428288999978014 5.090812885208952 11.781822528352778 4 0 -2
327 1 0.4990806185866069 7.7351414936131455 10.326714968612418 0 -2 0
422 1 1.4327065616395245 5.83714924630127 11.22724676332216 1 0 2
374 1 4.332896619390075 9.049655890018942 11.565038007782467 -2 0 2
388 1 0.130832596269984 8.47800144293905 12.69787518887887 3 3 -1
152 1 2.4296581804893793 7.463058890367988 12.645653804992731 2 0 1
366 1 5.788041030404013 4.540593338805154 12.465089905216978 1 0 0
180 1 5.486742748415331 5.539680504569038 10.06126024854623 2 -2 0
386 1 6.305435594926348 7.98729793686878 10.783487068192919 -1 4 -2
205 1 8.085153237655302 5.844348514318066 10.222320855684083 -3 -1 1
500 1 5.2293236761802175 6.994578789851162 12.573898905759684 1 -1 -2
347 1 7.943764241796028 6.582191887507663 12.252428792144304 2 -3 -1
306 1 10.406018445694805 4.355541510554181 9.962190711946544 -1 -5 1
148 1 13.182065403902257 5.128514346866741 10.336645960827564 -1 -1 -2
23 1 12.476242205919746 8.632487467284873 8.657538584503554 -1 -1 0
146 1 11.296676267541196 6.624716000733065 10.036065362828472 1 -2 -1
248 1 10.035069076690732 7.98111230844866 12.577271117311998 2 1 -2
109 1 9.994958638862151 5.442987734036696 11.92927093622416 -1 -1 3
91 1 12.578637844829228 6.518748565250637 12.088593168834368 2 -1 -1
435 1 9.082034416129003 8.125848640527005 10.250252740966145 -1 0 -1
311 1 13.348727910658045 8.630927501832847 10.866115780005115 -1 2 -2
406 1 14.232173077739136 6.880302067206778 8.870056768296436 -2 1 0
43 1 18.14028649696276 4.907650024566137 9.783696732076013 0 1 -1
129 1 15.107390721968025 8.918245312132386 12.500404805129147 5 -3 -3
121 1 15.801785002837478 4.698712643906802 10.370966489479631 0 1 -1
76 1 16.759246369224336 8.455921494408445 10.485177302195506 1 -1 0
136 1 17.506003901104663 6.03394896570127 11.669047799305087 3 2 -1
340 1 15.0466016981619 6.801348464989449 11.25009083211084 -1 -2 2
479 1 1.1891151836421685 10.104344764546129 9.341904437623755 3 3 -2
454 1 1.9536016740972402 9.697572551164813 11.668204349943263 1 0 -3
319 1 3.658945579727108 11.286030303338931 12.527752611152428 1 2 2
411 1 3.2545403426063477 10.963119261614764 9.989310968027645 -1 -1 0
460 1 1.5162344273440282 12.436018272577616 11.360557671377862 -2 -1 1
102 1 4.853704691075672 8.889808414152103 8.828096813604471 0 2 2
471 1 6.986233584128591 10.013080554340046 9.17030388460049 2 3 2
339 1 8.771301063779278 11.561905590820768 9.699838626678854 -1 1 2
55 1 5.130901759214546 11.69573981142579 14.322581266551113 1 2 0
475 1 8.184867313365228 9.927139773538139 11.465099462717015 -1 -2 2
167 1 5.803057561093231 10.978241406386346 11.297316957502645 3 -1 2
296 1 6.963519713030237 13.165507397598313 10.475596767362468 -1 -1 0
187 1 7.702860622536004 11.0505726333063 13.627774273184164 -1 0 -2
310 1 4.045765421030297 13.182551243155553 10.752000019815906 0 -2 0
11 1 10.609747679757387 10.074137574131434 9.294129922619552 1 -1 0
458 1 9.187501903977282 12.529909242229373 11.910094186021254 2 1 3
241 1 11.192939215706756 10.222528658637001 11.588815915965348 0 1 0
328 1 12.120066032398322 13.007489325200751 11.263103674198337 -1 0 0
77 1 13.229784366837965 10.800384241607238 10.186490086719397 -1 0 0
290 1 9.811442236007906 13.870658495496022 10.31946341335856 1 1 0
348 1 11.45721675361006 12.119569950169783 13.777437295830934 -1 0 -1
212 1 17.57623623894998 9.88170254294074 8.65691103354765 -2 0 2
444 1 18.174722697559872 10.365115585297247 11.250356370139196 0 -2 -1
140 1 13.716494073923503 13.862103306436007 8.949441128511854 -4 -1 2
47 1 13.433975460357157 10.881075856647156 12.50885252901335 -1 0 -3
173 1 16.85412138018075 10.343614460621863 13.356765814846188 -2 -2 1
49 1 17.289721344328086 12.627197017698938 12.483094469021866 1 -2 -3
433 1 17.61091094673538 12.129621210581629 9.416804183870195 1 -3 -1
322 1 14.584333685660694 12.675954628038792 11.243160740609639 2 -2 0
323 1 15.653987111937004 10.555172586906227 10.921683939461971 -1 0 -1
498 1 16.108831002935233 14.010717219441725 9.953266374721837 -3 -2 0
355 1 3.784394364134629 13.28864123514188 8.33354186033608 1 1 1
298 1 1.0775725913902383 13.545791469282584 13.951751687108999 -1 2 2
342 1 2.216515005014903 14.802949466735978 9.617623752112051 -2 0 -2
372 1 3.9014057388767265 17.43425871880015 13.374861621896253 2 0 0
4 1 2.454484976003863 17.488187197474176 9.647421973395842 -1 -2 -1
239 1 0.23461993653785418 16.850807788768975 10.609515712151088 -2 -3 0
114 1 3.102767968466879 13.659855033614107 12.662629587237692 -3 -2 2
330 1 1.5310148444952845 15.76868929294488 12.712853170976883 3 0 -1
420 1 4.780463523929346 17.767063057050528 10.796693445151224 2 -2 1
499 1 3.5366117909618904 15.692076851847604 11.399320734796365 2 3 0
256 1 5.613721716666959 15.278238046593934 10.35058753945903 -1 0 -2
467 1 7.43910043089443 17.340124476503057 10.790036165709719 -3 -1 0
160 1 6.058712097067914 13.129896814262052 12.80420364732878 0 1 1
208 1 5.908620012313006 16.055967520063568 12.491954917036754 2 -2 -1
367 1 8.218273960852041 14.9839513001172 11.842576017409112 2 3 -1
258 1 8.236165946445903 17.4886796053882 13.597533063452486 0 -2 1
354 1 10.588417525843722 14.34143375738703 12.782805274477985 -1 -2 -3
90 1 11.667098822386363 15.224440793080644 9.995142302452871 -2 0 1
276 1 9.321912360917038 18.02969121207716 9.271019911271699 -1 -1 -2
293 1 10.060311724065441 16.492593205844855 11.36394418860347 -2 -2 -2
82 1 13.641094977722457 15.036042573406267 11.72143712321409 -4 1 0
404 1 12.38571166576299 17.061710133406415 11.124430088730573 -1 0 -2
137 1 12.778714257374114 16.091748579036 14.382904607739656 -2 2 -1
364 1 14.405419060089727 17.995367625056375 10.74005525308159 1 -2 0
307 1 14.39550982343431 16.216869318958437 9.460062284821271 1 -3 1
452 1 15.89356104516101 14.372112584667283 12.458206126345154 -3 1 -1
213 1 16.543669358718937 16.015124697285785 10.806348057890382 1 -2 3
144 1 -0.15171205135141042 14.46567072706049 11.256889464404601 1 -1 1
166 1 17.563380486405123 16.313521920821756 12.900897664496458 -1 -2 2
222 1 14.95745125642673 17.248562024133335 12.721961982433632 -3 0 -1
238 1 0.5014142802772932 1.5929989078383255 -0.17813431159856208 0 1 0
177 1 2.797297642697201 0.7701289808756766 14.535597587762703 1 -1 0
224 1 1.365655119780678 2.28313050540807 16.035317289758886 -2 -2 1
253 1 0.890519828670298 17.935787768912427 16.411478885095967 -2 0 1
312 1 1.9795534745494496 4.284957254046238 14.07388239382544 -2 -1 0
465 1 3.2156924147004378 0.33381636074057397 16.917573501070784 2 0 2
247 1 1.418511025684462 5.034738204688366 16.366561693401295 1 0 -3
150 1 1.0435370568204674 17.66504699819246 13.943039473900935 0 -2 -2
94 1 6.471819201404001 4.057333882265169 17.47042820183797 -1 -1 3
44 1 4.183623366712219 3.2852530574732812 13.692367044627291 0 5 -2
392 1 5.042299010905676 0.6029223189196755 14.620563834562462 -2 -2 -2
217 1 7.135784903765207 1.7186854396819675 -0.2759102770299604 -4 -2 1
415 1 3.552719628112877 3.856751249399113 16.262919805946566 -4 -2 2
57 1 5.598046454257694 -0.10045675255309983 17.05748477324687 1 4 3
181 1 5.895383708135576 2.312128248343379 15.76387087276285 0 -1 -4
214 1 8.357452213838073 3.40120586472796 15.74087013167726 1 1 -1
391 1 7.962080082355305 1.0567011022447117 16.225780635386464 0 -1 4
127 1 11.673882167309966 3.0010028102818334 18.271494447108644 3 -1 -2
178 1 10.339749021031015 2.0439748783547875 16.57573390095378 2 3 -1
434 1 10.27925340927885 3.836388260896647 14.263927473847703 -1 0 -2
370 1 11.76974258109335 2.0062665799746746 14.242789937098266 2 0 0
99 1 12.541457117214474 1.0613635604890268 16.429556264664114 0 4 -2
172 1 12.66104566390255 3.2771427063417606 16.05385923374815 0 4 2
279 1 10.310072216981906 0.0990069344321961 15.01695170043463 0 0 0
443 1 10.813630127442156 -0.0967518788933413 17.519076143916003 1 0 -1
405 1 18.11495986860188 3.931780956093748 15.247375028587703 -2 0 0
237 1 14.175482753565092 2.422130475028795 18.04131633715614 0 -1 -1
105 1 14.324788470097786 1.619842286404757 14.492227147007586 1 0 0
269 1 15.29474865213522 3.7153235497660493 15.790093536321853 -1 3 -3
162 1 18.05170147526234 0.9478553800988607 15.104910902503594 -4 4 -3
484 1 17.270488801519626 2.674447209278126 17.32489930579925 0 -3 -3
478 1 15.963617553286921 1.1106703150999089 16.237750856085633 -4 1 1
266 1 3.8316311808212316 8.018201968339877 17.80119089811653 1 2 0
431 1 -0.22628963798571894 4.793080820961089 17.84455420825131 0 2 -3
135 1 1.4196689366310176 8.691510010054248 17.974821146366715 0 -1 0
295 1 2.7695270276041364 6.915806483430112 16.002943113443884 2 -1 2
98 1 4.948616906837963 8.088556832962134 15.338154111710086 1 2 -3
246 1 3.659681047236589 5.7320392498396435 14.151664398041232 2 0 -1
233 1 0.5181195761418959 6.1837149570949075 13.966089169650356 0 -1 -1
442 1 -0.0705630466045351 7.274264287316842 16.706372738209744 2 -3 -2
493 1 4.2956890887456725 4.491941881679183 0.6030540699038751 -1 1 4
33 1 8.155152135198671 8.675967629539164 13.6893381488925 -3 -2 2
396 1 6.786445004242251 6.603148809561626 14.468089114285378 0 1 -1
362 1 5.537490143752569 4.624799924195172 15.044587867634435 -1 2 0
469 1 4.695022335137537 5.90936836069315 17.06083864956426 1 0 -4
305 1 7.64862158132968 5.909948186081647 16.650388927056795 0 -2 -2
15 1 8.10961567035502 8.348485395053318 16.167758135291585 1 0 1
196 1 6.244369658987833 7.912826618563679 17.34352350223144 -1 -2 0
300 1 10.199090743959282 4.668361312238623 16.72713535997231 2 2 1
149 1 12.66530096822467 8.678644879927845 13.453678937724138 -1 -4 1
50 1 9.406109022777523 6.121402569909036 14.561577876314141 -1 -3 1
42 1 10.363764919125423 8.353755296115303 15.133963221873294 0 1 -2
436 1 11.69324029688973 6.2477427548003925 14.099336881780614 1 -1 -2
87 1 12.066812844677441 6.011850620712513 16.560518467754463 -1 -1 -1
89 1 13.114797169507847 8.086006869476524 15.934204616327202 0 3 -5
474 1 14.804458707479101 7.420437372171269 18.240118776377706 -3 1 0
464 1 13.299533361416724 4.443902772037026 14.177201664244164 -3 1 -1
215 1 16.19989135955656 5.002005402583213 13.4560277294559 -4 1 2
315 1 14.394213133917505 7.036931007557375 13.7191034691474 -1 -1 -2
385 1 14.383262486731724 5.94312761075487 15.978915839319425 0 3 2
193 1 15.619606961340493 8.03321632007226 15.951577633554669 3 0 0
163 1 16.88816316817254 5.975542056913159 15.646988420370002 1 1 -2
69 1 16.811909810797033 7.72121142705344 13.66818794315563 -1 1 -2
123 1 1.37202783688624 8.669916803325314 14.854670282589293 -1 -2 0
299 1 0.6256843464685551 11.211763364933471 13.470552842024052 1 1 -1
272 1 0.4336415291499385 10.787554201522559 16.42864492411303 4 0 -3
58 1 2.5558175038195627 11.712093707017672 15.035338307929546 2 0 1
243 1 3.4613453478116476 9.540552929548818 13.877017203036399 -1 0 0
286 1 3.052160580234924 12.204786910200387 17.446054823053004 -3 1 -1
291 1 2.9581134896755055 9.643357129351656 16.414840978183797 -1 2 -2
399 1 0.8300572008080835 12.978311253503948 16.396237718382842 1 -2 -3
254 1 4.983549744278695 10.567506526367286 17.48727727379481 1 2 -1
97 1 5.855134678174075 9.275680873669396 13.480498772462946 -3 -1 1
351 1 7.09532533069398 12.89185631983401 15.231838598425783 1 -3 -2
48 1 9.052616054336887 10.473638707188952 15.811006310721817 -1 -2 -1
301 1 6.32203837494564 10.054770626110606 15.842774519542568 -2 0 -2
453 1 7.3824439433777265 11.801135795006775 17.505277737893664 2 1 -1
278 1 5.153778011240746 13.156129637133843 16.813755663742548 3 0 -1
466 1 10.045077361173526 10.287902681127571 13.501954414516701 0 1 -4
288 1 9.346802654853551 13.252321453575714 14.3875766327538 1 1 -2
240 1 10.681652822709 9.425417511391947 17.23951826653375 -3 0 -3
285 1 11.729342027483387 10.433627354715705 15.479394689559408 0 -1 2
93 1 9.45400491139465 13.141200255515693 17.231421407739404 1 0 0
220 1 13.699490962714886 12.348405846716961 15.640824266278061 0 0 2
402 1 11.993416652566657 12.3875544743672 17.69209620554235 1 0 -2
74 1 14.378267214860928 12.296324393469591 18.172539584014295 0 0 0
186 1 15.068714618194434 12.081895330507665 13.769179970117042 -2 -1 1
229 1 17.097497214442278 8.967323747524684 17.79688526259364 -4 2 -2
189 1 14.595995059928459 9.930413030048358 14.684642569330158 -2 -1 -1
407 1 17.049644988913712 12.583455291900194 17.63877465808492 -1 -2 -1
381 1 17.737038452840835 8.971271612290868 15.41992719083026 3 0 -4
329 1 13.566547876866599 9.920003933968344 17.10615253431162 0 0 -2
235 1 17.47194388927246 12.204238341428525 15.092117371008037 0 1 -1
185 1 16.229129836064793 10.684649640590054 16.475796433828258 0 0 1
153 1 15.667505327555324 13.544692457711474 15.914321033390204 -1 0 -2
488 1 3.540381851548931 14.489688304855 18.163978542303045 0 0 0
234 1 4.8317940807496855 15.183697514408006 14.492968470066405 1 -2 -3
432 1 1.1775843437809825 14.308354858367919 -0.14201443407369813 0 -3 4
170 1 1.0459360382820293 15.417377212125672 15.43551611467049 -1 1 -2
115 1 3.08978007885434 16.749525901612834 15.280402726795346 -1 0 -2
273 1 2.311231006879092 16.400437818171916 17.418719682782836 -3 -2 2
459 1 3.018063338409872 14.180412528283775 15.81224654980972 -1 1 -2
360 1 6.049031248452389 16.9715428434909 15.197743237659287 -2 -1 -1
450 1 6.8230419041353505 16.58519262786055 18.24152809734555 2 -2 0
379 1 7.323213503785985 14.498378850136579 17.025795256979073 0 -4 -2
223 1 5.019348044025725 15.855011517920369 16.710320893921114 -1 -1 -2
61 1 7.536979487759759 15.103293782933946 14.388949674249108 -3 2 1
398 1 13.584496344059472 13.893260493032717 13.676720591620313 -3 -4 1
24 1 11.547766964549192 13.662230452385204 15.606461962828151 0 -1 -2
350 1 8.191170018423056 16.86172435246202 16.106968407709452 -2 -1 -2
257 1 9.326202470226406 15.721177251856032 -0.3451482819921508 0 -4 3
118 1 9.577122950849722 15.086295450032308 15.769926352802889 3 -1 0
429 1 14.0213324721326 17.82402319198814 15.690382174842087 2 1 -1
112 1 10.550339048470473 16.43767402136735 13.959669064193212 -1 -2 0
10 1 11.450869769800404 16.518890133733187 16.729834164205407 -4 -2 -2
274 1 13.515438710653267 15.124240371846733 16.519698734941734 -2 0 0
260 1 13.188188158377375 16.837915178688476 18.171261125530904 -4 -2 3
395 1 17.376949246297947 -0.34521938684621745 17.40663968607214 -1 2 -1
384 1 16.081964593414583 -0.02834361969083521 14.17277739431287 2 0 -1
131 1 17.88520973580156 15.08698861483198 16.947015547812605 -1 2 -1
16 1 15.334228646982343 15.691197325196674 14.73023801290088 -2 1 1
437 1 17.49230045419459 17.09768831335692 15.46568400619424 -2 1 1
490 1 17.419072245084436 14.452247943621822 14.324583849774887 1 -2 2
95 1 15.869250347266492 16.289742969501646 17.15764441621218 -1 -1 0

Velocities

424 -0.21475102971988008 0.06770361401802769 0.728677553738875
203 1.3233867188782376 1.6858521470236505 -3.241333405322461
495 1.0494551756915822 -0.8669520590031652 2.244290212044486
242 -0.9617257056995755 -0.1253819535042506 -2.176544418708028
356 2.921150642665613 0.5017204755080465 -7.340356810243989
117 2.4949994528505752 -0.28011235904169235 -4.869236886963663
210 1.295338085819063 4.009824101834256 2.0662581000574347
218 0.885615062635807 0.020839303493454628 1.3150906871200285
448 2.069194730550784 -5.29917941127751 -4.2037554635465915
441 -2.021309254868496 3.409568121074933 6.2853042840112305
228 2.5078677901927193 1.4861120390160596 2.0665577129158312
371 -3.0624769273702817 -0.5479046329565576 2.966961599140932
412 0.7663021333920945 -1.02722462709671 -2.6182555583576907
27 -3.5838887031701234 2.916804552083346 1.6663387826628313
397 -8.634365365139127 -1.6470619025461826 -7.519256633142303
219 5.3971698105626436 0.8979351968969936 -1.5697250378851024
326 0.8269388351508645 1.5696851029418166 -3.0780529611639564
199 -4.483761217737206 3.3240262004850467 -0.699318108128765
357 -0.5686135130265144 -2.8257467473793474 -3.030990912637141
287 -4.183090875186786 -3.448596216816738 -3.23655791260172
151 -0.9427482303271392 -1.1136229963689295 -1.5165114832847006
158 0.47723849164213433 -1.0374577856355858 -3.3257631695889294
175 1.8872412441249082 0.7152436777249733 -1.1841386407431433
438 1.450116914498756 -2.2622362721995675 4.077310479985636
481 -0.4147546570995013 7.919037790019166 1.1185648174777847
251 4.65118364677329 4.770029657445049 4.43054569097843
252 -3.276063044387368 -5.058215333902319 -0.879330307449768
52 1.1726297835799884 6.40788342007431 0.14520669349535545
161 -4.449336286511696 1.221230026182279 0.8824430594596341
485 -1.9458022440578007 1.3959529924062923 6.148185752702603
338 -2.5609121038045943 -1.2729271594636835 5.404338389196371
3 5.236666089759189 2.0325748146050393 3.9683656612891127
13 -2.8345682971666117 4.184444159909289 2.126415264862167
45 3.7825887158894242 0.003670440845294468 1.943043721438618
179 1.6672655784851795 7.30993387969201 0.5305074513564147
133 -0.12528854559124522 -3.155670186823488 -0.9662061913682809
333 1.578544457433233 -0.4188438926383031 -0.1174692887448909
489 -1.351543954001878 2.5689425787868494 3.223788248006246
380 -0.21934228758086138 -2.9634639097380107 -1.6471769020728326
225 2.8896343335838335 -3.5597367231233257 1.2987863562411055
79 2.8126592258087144 0.495146743378305 0.33729706943716214
294 3.175960611069731 -3.8747599272680295 -2.6891833596201224
486 -3.6952747125339025 7.446259659265084 1.334773243459424
497 -1.204204683589583 -2.613274683935393 -6.242972016754166
147 -1.9997132694179975 0.06206071233713153 0.5621259513033765
334 -3.1088437141276355 5.536995970394297 1.6105598342811767
317 1.7746857224152581 1.9117521111811175 -2.206629984814966
455 2.778742721291587 -2.8573474256299973 3.712230131444731
157 -0.7056764768004965 0.8287571101473259 1.684372696396862
403 -4.721580266832535 0.7691620314488598 1.9858048303933353
250 1.1460914612106923 4.56780107471508 -4.015361913628068
321 0.33314843660566146 1.8783645935955715 -1.8988679271581925
5 3.52636653000265 1.2728807764926926 -1.500326245202375
78 -9.08043405949307 -3.2913672622787407 -2.917230340893559
221 4.056843788912445 -4.305365191597369 0.5867334042531333
344 3.893391680640266 2.1008487705197014 -3.622946453436192
376 1.849344997618699 -3.0148950655088624 -2.2454229648406514
191 0.5395350725617751 4.0884165736277716 -1.4574352354624471
341 -3.5515572980847567 4.042053272067331 3.5941845719582557
289 4.266340641631254 -2.784584048932903 0.39817173250110793
29 -4.888636816987829 1.2617997332020905 -4.785521120047591
12 -1.1977510464859369 -3.17024329750009 -5.454906797195715
394 1.920777366592024 -1.6963386219116299 -2.182036268538275
318 -4.979210259269371 7.234122570481219 -1.3093522491516667
198 4.162955007750436 2.642694122376784 -3.577325240848337
2 -0.7870607066823683 7.173951320345926 5.706187074709878
88 2.6529463493533183 -1.4934206620699277 -0.9118774016203475
35 0.639339336048839 -6.726864563929466 -0.48336246425418183
261 1.4101275254297583 -0.8441858932743255 2.8382068948361825
302 4.656250636453285 5.213740375378359 -1.6226439521519946
428 0.6902238197777963 0.30733602286039846 1.0092817106096275
463 -1.324443894761121 -1.985526065358002 3.735775832631953
190 1.677722328219873 1.7534400687596887 -3.555235847779824
138 -3.735476022385175 -1.3122092926213293 -3.069666701668255
491 -0.677108197330347 1.401064783655796 3.2534713083696967
389 -0.5965856166571291 4.154196443533485 0.35621635273279356
400 -1.6325286878241259 -2.4411913813948836 1.4136771700357083
255 10.705765226729616 -0.2556553575046653 6.471568070046234
419 -0.4772435486295062 3.096570501791701 -2.711565865996249
369 2.4737103927190383 2.1298284877652374 1.7144896432102814
1 -2.4082336272447815 -2.270648104058977 -1.7148719301481585
21 -2.05279083476199 -0.743962743016745 -0.5795751822494466
171 1.123957580383396 1.6672247865666534 -0.6182567046512512
110 -1.158774303023663 -2.5119261098927517 -0.6861790838222325
353 3.0263460002460967 -5.824049545001875 3.636354234801201
41 0.5525004615398572 -6.227174520685657 0.8569940211220811
155 0.9705191942199781 2.4540282669401803 2.6579851168824353
425 2.412474869233646 3.0850670857669344 -5.450093659899795
20 -1.2130674388301184 1.6174549420495594 1.7602441316854631
201 4.454222792822641 -3.937757441995077 -5.858448500260712
9 -2.4270104461559883 -1.6440473071204709 3.7119156349462674
382 1.1179461825923014 1.2362329629351299 4.608503227589133
142 4.807013380600935 1.3548163052086375 -2.366385023198845
413 -1.33605990968438 2.400083074928012 1.0662299260310104
107 -0.15142766987069012 -2.0200373854830205 -6.444617578452512
119 4.55028715723939 3.076416156268462 -0.27072261906372524
426 2.3657561120143313 -2.4127509336661848 -3.685580974976758
324 4.475658019953165 -1.4223632926201024 -4.536851664829514
457 -4.641283720191972 6.045465553845809 -3.6958479620825306
408 -5.177571657797089 -6.229355250579234 -7.29048688875134
409 2.9523456585490577 1.5598665420260693 0.7818466563458353
159 8.60834139560698 2.2020680711455367 -1.8496207768691628
32 0.6016808000138576 -0.14331840499734613 1.312971426613788
336 -1.9670320198224875 2.545906818964051 -0.6827585379123334
39 1.7046632866760612 2.8464259241254615 -4.502622878424318
54 -2.627826449710843 0.4002415534551382 4.360724628242782
134 -6.876672639616652 -0.4262830786900682 -3.754673878901043
51 -1.7060702894450588 1.7943390434015627 4.685419226494764
337 -1.1637790228636662 -0.10896411297970841 -3.927887158431065
156 -6.185144731972718 4.629830796512299 -1.975656818164076
421 6.745901898451929 -0.06722292078727456 0.7851811155887717
60 -4.027823933772331 5.6511976417688645 -0.8996728354197769
84 4.5106029308348985 5.3392677373247395 -1.3340841561048598
232 0.8240722330556259 -2.818113435096821 1.3568650263971451
263 -0.12191366279674122 -3.1428298705502167 -3.048815602958031
174 -1.8613158851479332 -7.351358734905285 -2.8983783907244
361 3.8542234546377574 0.5546958065956398 -1.3705610513699686
200 -2.131724390535338 -2.8392233710421393 0.5174096371886551
56 -2.04178407822287 0.11658881498522089 -2.203277314523982
130 -1.3151870722702956 5.682880737133686 -3.4055982106739435
204 -0.8599394862632622 -5.398284205362714 -0.527864532594646
128 2.8924957758906222 -3.5028683530063733 6.466211980742032
401 4.516664995644816 -3.588427668619008 -11.751484326960597
122 -0.3405688817610557 0.3321598121385475 -4.525594831061275
176 3.155246226086975 0.1492432683372422 3.416873950697311
487 1.4722634294737298 -1.9136385550545358 -0.44722756611350367
141 2.2097470458785335 -4.1324440302305065 0.22289733680692658
423 1.1493570525037242 3.253989375716685 -1.9697755323791204
104 -5.326541787433525 -2.375378081254364 5.128631453351298
383 5.671570809191242 -5.11472677924799 -5.043475623542509
126 4.884070628322333 1.1100797422362756 1.6062312727169856
120 6.975196527778214 1.416399703258447 4.149779342342565
349 -7.488440860968917 7.89945741188501 -4.935851799958569
304 -3.9613169632500274 3.1114521532566752 -0.439922573357385
184 2.0129032369099793 5.477611864786623 -0.033365834852747765
18 0.4981675541380593 -6.467866216657718 10.068357568138639
139 -1.765976327627978 2.973228465674979 -2.374581801683752
30 -0.38609480115199885 6.576574816180447 3.5105794969564332
335 -3.833821189428276 0.6823601926608298 2.333881128683656
325 -6.076652304054522 -1.0599595885142437 2.5511822280429537
483 0.3874870649087275 -5.212855425334515 -7.363528142373549
68 -5.4828170349743 3.7740578210540536 0.07321334470929189
440 -4.35084956041416 2.139207338156163 1.548816076239124
34 -1.3252945139277783 -1.4812081172931026 -4.323925425994484
182 1.6062908707320356 -2.2088329645301674 -6.190974473941853
313 0.43639959882729434 2.2224806119570406 -2.7917064192521153
494 -1.2526061034351421 8.874364867308778 -0.43890457495305113
73 -2.179234207866262 1.648976408936338 -3.313523958803095
320 3.5723378791511546 -3.743566018435278 -3.0459064452152984
271 1.6854710600114813 2.0410587998753638 6.458782354269519
116 0.755715579436632 0.5996079645962397 -2.3733009503696927
22 0.6521359089578498 -3.9468972333483863 -6.097662150795992
145 -4.743537721476617 3.909356884209434 6.005300401263709
101 1.1263675723935316 -2.0784759267153303 2.22006257747816
211 -4.805535303648304 -3.794948124119791 -2.0132276711789587
282 7.549048022229153 -1.620229175941724 3.2313899503711
37 1.9043062361517447 -1.4380085970392598 -4.171139584424703
132 0.946096679007127 5.306794994933839 5.351069390837402
28 -0.028736352746038554 -0.6565283346825703 1.7425459378623787
165 0.982325929182247 2.947033244029967 1.3927910396087413
59 -8.54896339178656 -9.258352712707458 -6.866099370518134
439 -4.873693740725147 0.7110272034474444 -2.316387248096401
427 -0.4014699522291924 0.4221444845984399 -2.3332801782313655
113 1.966697869584256 0.2824273074749449 -3.675071921527544
417 0.9135963988905238 -5.639468377795358 4.987514519242328
390 1.318637519124471 -3.8252260603650967 2.276785608908432
85 0.11901464550487129 -0.9349687009917604 -3.6997222377197616
194 -0.9830076196397044 -0.9217359232059756 -2.1353497795085485
7 -0.05709363080774534 -1.5163685197502725 0.8104312464743605
270 3.5944509310700226 2.4998112182717525 -3.1118873063064454
447 4.621380855073596 -3.936203624785244 1.3399916845454458
188 0.2953901297464456 5.297293356043877 -0.7453857991757926
125 -0.16065745349793684 1.350126286659564 -4.949882323761403
65 0.9018624489771552 -0.8568126897061109 2.3317692308140376
451 -7.600141537148599 3.2909605702119107 0.6751851114380462
66 -2.4113960911990104 0.6599360339241359 -2.8649109359384113
244 -0.19360265479972513 -0.49825190702694355 -2.2809257380273134
316 -0.39863900743615993 4.102986739686061 -1.0876727654607412
480 5.305892536472922 -0.4622916810594577 -0.6769429749559945
414 2.0373009635088826 -2.0432868728180744 5.48140232674968
124 8.42635698113249 2.5253914453383706 1.1939143869333817
377 3.182326271696423 -5.490198712854792 2.045402033151226
231 6.082108704661145 -0.23223977927219208 0.2615207438501887
111 -3.0957849052797664 -1.2855374146381147 0.20692182702916573
472 1.8570361469862606 1.087688483554159 1.5108478280430513
8 -6.489694365442563 3.7997418952524495 1.832200081826194
332 1.2236539406255316 4.843200075073714 2.8086524173266243
461 3.1065300613700435 -1.74995629259944 0.7547003219179574
25 -0.35847741873298355 3.842509496296426 3.579549883852256
38 0.20606082910038692 -1.4045017982258894 1.186518592433898
410 1.878948606023038 2.4586390743742483 -0.7397170627025724
343 2.705812716349841 1.2063488236070468 2.17011376405252
154 5.400372683938399 -1.5830932349675926 8.65636653306444
297 -6.34474161399244 -2.269087919545301 -0.09994976311305538
280 0.8629949436384025 -0.41221728094219806 2.304558056573439
62 -4.066512643555793 -2.2126326330590045 1.5825377503678308
375 -3.0628156127526145 6.696841723357681 0.9721043972516427
265 1.26263474744177 -4.206249653281386 -0.07331566217414176
75 -5.033323429718258 -4.067282169033248 -1.0945671548279725
275 0.638082485934503 4.173088383936794 8.251806451981317
64 -1.4829025236411277 -2.8646513374445006 -7.39924152469404
477 4.770362879561859 -3.876408256094692 -2.33412794963647
143 -1.5076011170767198 1.3265006900351355 2.852453643959131
456 3.2890581022178664 -4.280827841153252 4.3199629741884795
249 -1.922537627724421 3.6562264513082106 6.838921102356677
209 1.2088138265868302 0.6766481890199074 1.3175594178188483
192 -1.4703085651863645 -3.7797248797421767 -0.26326183401737047
365 -4.099591389138754 -4.630305650026951 -5.3858636790532985
106 -2.051922545879765 -10.086916500196494 5.866023218089466
368 -2.3562618419400647 3.3538838382836054 -2.9260568156406523
496 -4.725662712181958 0.008913085875011549 2.5916561629874266
36 4.8999152546062525 -2.9311481515716244 5.14535948324014
83 -3.310800934510106 -0.7917829152514262 2.239415259348526
183 -3.240621941711298 -5.030472794235098 -5.535861242043288
202 5.759687713142032 0.5700475801007804 -1.1062699810705963
96 -4.726217701696868 5.042934388316172 -2.07321113577405
462 -0.9398345924900612 4.304481595763809 8.330864825729472
314 -2.7937415441707683 2.0248291890179533 -3.658758058157493
264 -0.4183439656862756 0.2454778896546247 -0.6018496512275312
352 -4.710080738075905 -4.864662199815066 -3.7659529389423185
63 -1.3226402000149675 -0.46720758395295287 0.3963492055070476
70 -3.551919289028967 -1.7440060872304552 0.3560509870370161
81 3.900473621781676 -2.56505955802076 -9.171760500802488
19 4.103942450212925 -4.799975430951537 -1.1547207685315621
216 2.774016068358601 4.31056758562067 5.062949582059129
195 0.05650094749438211 6.3325965498573975 4.041779518443078
262 2.027353155833071 1.7818961845347092 4.772377873226955
358 5.377356973162415 1.4679734149596957 2.659228857224301
476 -2.819435134488774 6.666429770450442 6.76375835433304
281 -0.8849594603927692 -0.4772225255192938 4.786616427148394
346 -1.7509351742782657 4.011937348649077 -1.3208892407684454
206 -1.9128631687059043 -2.0660804162786524 -0.20504606485269725
445 -0.6640110109531641 2.8036555815674014 -0.3356447070456355
284 0.06439913868322997 -0.09642354258904157 -1.6991996252166992
207 0.7676182489301708 -9.016691783218766 -3.2240464811165532
26 -4.312101117020981 2.6272526187810916 -6.333958501252966
67 -2.0057620327560386 6.943310958636764 3.0228798303679687
14 1.234710147213153 -4.909024176846784 -0.5642681988541347
345 -0.3599675321616246 3.271134283068811 3.3306437740832675
86 3.9843672617465047 2.434880884591261 -9.161749307997935
71 -2.4436637939105075 6.701255904147716 1.3997810383816258
292 -1.4691843821764217 -4.46621356373643 -10.642353811907585
108 1.1444374980668848 -1.9516138347927112 -1.9432726190385217
236 -7.501645694343104 -0.8989105568602196 1.3028756654390081
168 -2.7582460913063005 13.871797376679812 0.5576047321360311
230 7.661045996913204 -7.4787077351258695 -6.113642060258408
303 0.34477061948082 5.997437519804334 2.688400679782803
31 2.71597010577095 -1.6049929626636101 0.914210323129023
482 -5.86480360995442 -3.022826121058544 -0.5201174055604822
416 3.4964306745092677 4.3209551918886895 -3.1985325519323777
80 -3.9823269231601377 -3.7148736986049014 0.7030212761441693
103 -1.0317144939002025 1.483955510124384 0.6477403111088693
245 -6.490273098742753 2.7050510269408967 -5.471191055606304
100 5.477677333123377 7.94427562029189 -1.6519695633344411
226 -0.6232038263622817 -1.7754203882715942 0.39004669937895725
378 2.285129635608219 -4.406558159110867 -2.610593750159584
277 -3.0846324040356876 0.406290944737762 -0.3133088697177019
449 -1.2549604653381337 -5.213723657886973 5.963164184011111
359 -4.1294793702938195 -6.401312872689879 -2.641530900547292
72 0.5844203529489035 0.4015364785040507 -1.7538311244656937
17 1.7868400743198853 2.5474173369302004 2.5059733252662797
492 -0.6903780838532021 -3.274588340649477 -4.0007389079624325
373 3.1189422183880837 -5.12259543097698 -4.936104484165662
53 0.41676101658545495 -7.987500125821548 0.7739362944340689
308 -0.5144467195972838 -0.1901654142236676 -0.02846570428434127
92 0.9695153883918975 3.193856542107833 -1.4992683091483128
309 -3.9269578618532757 5.296490277918104 -3.004933524553809
470 -1.5875903810473502 -3.608729405839706 2.322810921564594
227 0.879011341452247 -2.214434808898622 -0.2919928087210131
267 4.110931414884463 -4.010539394424302 1.578106980506925
418 -0.7060860827479384 0.8681211189069477 2.2272585917125856
46 3.8939986448445136 -3.180730501207874 1.3040096302023627
387 1.111418497673345 2.2697302175891734 3.8707029872105223
6 -5.561053014061093 -3.5495539335340496 -2.414613348572969
393 1.662088406482698 -3.555544885511724 -0.9368615579891578
197 -4.987049727674243 8.129107322984423 -1.5117853103469305
259 -3.598862619943734 -1.1968378411082463 -0.1982399821684289
468 -3.6108931110441604 5.193895837815997 -0.5998456781660454
430 -4.637124567165604 -5.803545021478863 -0.9131543910511865
164 2.2365784025104793 -9.289678075686275 8.412160639989095
473 10.902397900038155 -1.3222952158697105 2.690584666482481
268 0.39597392685192007 -0.4945364645395764 -8.83728796215774
40 -0.11852424318315202 -2.5526566828043067 -3.2112385005882698
169 5.67349215140612 -4.10470353815828 0.793552387967723
331 0.40963522908044203 -2.8926260839183495 -4.214938831362668
363 1.331576265697422 -2.4886303315777263 -5.002920293622282
283 -2.2849540974639426 3.8166304450119153 -6.922187559580291
446 -1.1079515935781175 -4.800427544378419 -0.5758421150226917
327 4.273893209709093 -2.4566166831744893 -4.829961269433469
422 0.2880295635203852 1.4543935993079093 -2.1441483600413638
374 5.209043076150764 1.4734210439836917 6.201174683023858
388 10.706875764693132 -3.415342357224653 -4.485757171674378
152 -4.201459598520679 -3.5414686318747566 1.3199333984828026
366 -5.191398440866031 -1.1437634049471146 -0.2246646196166374
180 -5.672705208069478 -2.9422629004731324 -2.0470282983117367
386 0.1262276011485204 -1.565947398514883 -0.18279384436565982
205 -5.508310947526375 -0.7025570137172946 0.6252209807616613
500 -2.273543406592371 2.919481555374895 -0.38318305324681534
347 1.4347737999339867 -3.094477199450607 0.41229710583852724
306 -2.115254211322407 3.43265151358579 3.819083725086181
148 -7.008637579427644 5.394046310454922 3.052959785168242
23 5.976212573919701 -1.7438500398235461 8.256029039719328
146 -6.630475383619749 -8.971450990403714 2.5826846462913426
248 8.555322140789032 3.1294313904794713 3.4673168519907898
109 4.473949953365796 -4.335201048516033 -2.0906182644955074
91 2.1884221729473747 -2.6840191052747175 5.299552725122538
435 0.07436749568950149 -0.5547780054798592 2.0839104047450845
311 4.01199332825374 4.577146398359507 0.8687906850043212
406 -2.9244423801705874 -5.328743090490872 -0.658018522760412
43 3.466252667136685 -2.972684009760016 0.7793314894045653
129 0.17728880280941503 3.1838216972746087 -3.9595986050812
121 2.5832661547321116 2.201882257566404 -7.7910286055857085
76 -4.668068007396313 3.4985433275680955 -1.087899720523375
136 -3.5187144403466366 -1.8446185091129892 -0.37385990699411004
340 5.130576590451241 6.154467773187026 1.12084194121773
479 4.417329002188298 -3.5197167009221917 9.312662723142756
454 6.964590349709758 3.3951495472352358 0.010342285989309145
319 -5.655627045387771 -3.498288698512173 -1.792159733808399
411 -0.28998520246116466 1.5787418991480646 3.7704899077217107
460 -4.584039781557857 -0.6942836283694316 0.9475618093623623
102 -5.2570975382159935 -6.1045227689558885 2.1011541772919324
471 5.026081543121894 -0.8724421379149397 -1.4604857309138375
339 0.48770356393659114 5.080673935946205 -4.987224747276526
55 -0.05655044560729947 -0.3822526281900015 -0.3298821424722674
475 -1.959694275024095 2.7259862613815384 -0.17419711809232039
167 5.163299548983173 3.54109461890684 3.167457473096095
296 -0.8024903197041535 0.5513387234666309 2.770868604295836
187 0.1955224356663724 -1.827448559817619 2.560780177957092
310 -4.316187839069556 -0.4047007474865704 5.648110112037565
11 4.1244776907599965 -1.2706180152406508 4.059467483938289
458 -9.454853465653255 3.0037711892747128 3.372118644575849
241 -3.5905206135631857 -2.8361483257113984 -1.702223043814879
328 1.2887174220187783 5.66041439488907 0.007200509987500306
77 0.45659882337003993 -1.4697305316999079 5.624112746383083
290 5.5050745625116715 3.8707073505572414 3.4669754022539383
348 1.7005152075059193 4.359765131505015 -0.4784970169141383
212 2.17954891306392 -5.954668428321899 3.5594776373490857
444 4.906245675246416 -0.5532299297075801 4.767042080454796
140 2.7681020437409787 -7.8063469346826455 2.3301163443818314
47 -8.994549314614765 3.701019066180116 3.343237301993192
173 0.7479055300828014 -5.907141832212778 -4.754378049621615
49 2.0832230923616013 -2.517627950113754 2.603923649489637
433 3.233630469694837 7.156063594354112 -1.9087150566039837
322 -0.02118650367666684 -0.7074771375683702 -0.21515645624476484
323 5.477851913429003 -3.7772870905880866 -5.188928885303924
498 -0.5538451898407377 -5.717845333214651 -0.03573024544811114
355 -2.6333581304032556 -2.0880418929603337 5.035327538420132
298 -1.0779626710951882 -2.342443533692808 -5.74261893945443
342 2.34480008813586 -0.8043169362238886 5.133458996884523
372 -2.3533914111250063 1.422015763441277 -0.42400555515696575
4 -0.15253185057346072 -5.681151110535401 -3.156666756541487
239 2.038601301341702 3.1319233609699038 4.720796286275646
114 3.884404317544027 2.8660771918704553 5.615464268382419
330 2.1416332926998205 1.8091280443498614 2.8821027878940466
420 3.8561316765220957 2.8671835967000097 6.941138208920044
499 2.233366610781068 -1.0675077247742277 -1.4070713586181187
256 -2.8244875282292843 -0.5621169564886588 -0.8298037426880569
467 3.9418956357483865 6.0794882148318665 1.8144503563714647
160 -2.66739478513275 -0.8015415195038953 1.7426674184752873
208 -4.272502970234179 1.385651138870816 0.13198659216515074
367 -2.3176800472424164 0.046231165719885364 -3.7751987493858237
258 2.6011286867433 -4.098855790403863 -2.663193843100159
354 -1.9829402164236354 3.893029116050358 1.240389341030816
90 6.016348319246569 1.6025875937507874 3.149094025545513
276 -2.365053800113921 -2.000769959009323 3.6796238897601468
293 -1.5631998114541465 4.184161213115263 -7.901911792457674
82 0.9964158343358634 1.625282016174727 0.869760862363214
404 8.02714410622558 -2.204748342674769 4.282748465041914
137 3.223444259739123 2.952524573797047 2.310023868033908
364 1.0295584764334962 4.531069278218879 -0.9183487568356928
307 0.1364552466824366 -2.0374806003380006 1.937077628117067
452 2.205503673657388 -3.339859546390287 1.454957704308872
213 0.2494472223168172 2.1049053760505525 2.40349421392097
144 -4.575524791283311 -1.9030249698762363 -1.0189704987285084
166 -1.9100696253045486 0.2801406016243621 -6.116728942518628
222 -0.5514363951297884 -2.7267034569856836 4.336097927568899
238 5.470177890370711 -0.269601447585087 1.5037759786334455
177 -0.5170934881156076 -3.2004989183166366 2.915790369918019
224 3.154306671238721 -0.3104812275273714 6.08263070672932
253 2.3952309478138227 -0.4410296357215868 -2.0656618864409233
312 2.8882410740386955 -4.457974744087485 5.332666130239561
465 1.6124371366153674 -4.507379048501502 -0.7808569759023591
247 -3.6985106470183733 -0.17029175861678242 -0.6740949492324266
150 -3.7223073402799747 -0.10279554798809894 3.1482375358629673
94 -1.4391576597328757 -4.281287863228142 -1.6557673917365525
44 2.588677642438639 1.5534113878546956 2.94447290301835
392 0.35162649933144924 -0.8558481812944271 -2.2840060714257455
217 1.5737945140696712 -3.4116258262717 -3.255568114853757
415 3.8848231610390305 5.511255739000764 -4.30810911657281
57 -3.134099296385945 -0.017899455046979113 -6.863787102313243
181 -1.4948584489104981 2.927244397784881 0.775979300024853
214 3.9238505630586644 5.175476953502612 -5.2341491745948066
391 1.0700413179652601 -3.2108941021162183 -4.446791175055386
127 -5.331158269903909 -1.0166834961637483 -0.779307359213215
178 0.18312217107344453 -8.69218284052007 -1.9509402928812383
434 1.142131271114795 0.6843817394037073 6.714489399286218
370 -5.653119281328579 -2.8975202449149706 -1.509413369791139
99 -2.966989693623412 -1.3331682268018528 -0.5532965841534786
172 -4.157059070618112 -0.6514503185443745 -3.9056746758428282
279 -3.514122824333406 5.195129685527073 3.622041135415571
443 -1.053309781879264 -4.8147656370825676 -1.8715764749040698
405 5.952187551580783 -0.08984098679820254 1.1725066584077313
237 0.7210821001035063 3.5925976795921497 0.19435790768763606
105 2.654633226339828 -0.20767495912587766 3.018631351055709
269 1.820022142834711 6.2138179609768125 2.6251989409483145
162 2.623086885115978 -5.383345487725436 2.330292648512586
484 0.017895501171257374 -3.8653077267856557 2.314379240471215
478 0.4011117621917957 -2.4994527608995445 5.075018308364649
266 7.141462369850139 -0.5852621358092761 -0.8505723236007128
431 -1.0074425202277297 3.6788563445976252 0.3153040328415608
135 -5.101846204469916 1.0129187282822227 2.0465262652700553
295 -3.1951390845329013 3.5029584009572425 -1.4497983625161293
98 3.4164317023446715 -1.9823085620008636 1.7685388805824669
246 -3.2606485266734184 -7.178129234623573 4.712939360057883
233 0.2234086575476255 -1.9386464930867195 0.12792565791510666
442 2.0498821812369896 -2.0163736163675745 -0.5358833115850925
493 -3.234806064743477 5.585891198975213 2.8713113053952424
33 -11.09929139786616 2.9806944788960994 0.8630440659127886
396 0.6899683389029715 -2.641672392147183 -5.454096527814368
362 1.2478416145937246 4.99655377624679 -4.265285144199629
469 -1.1877679007155473 -1.1676863488253872 -0.45470223479474836
305 1.2991467926035318 -4.014304342588578 4.405053077265314
15 -1.9728555804091814 3.100788012053964 1.1455285667307604
196 -5.619507479585849 -3.3277036789025765 8.596112602577573
300 -6.3546059009964955 -1.8676372698955028 4.917900972438284
149 -0.6161464843307705 1.7000603446446454 6.0067876768946675
50 -5.476029394397725 2.6987563687455114 4.369468479580711
42 4.648913762172946 -1.0654240006041402 -0.0916156855726521
436 -0.1653805777475626 -2.6995997809742907 -4.36630406545091
87 -1.3757581091116824 -3.014920357879911 -0.4194170831831741
89 -3.644222196297214 0.4801272308186519 1.8547146282610212
474 -5.055311321000334 3.8400731198841154 0.29960773483354686
464 2.7543230008089195 -4.1642865623325385 4.36511397737249
215 -1.2978686211982255 -4.5842448884632425 1.6870902416638174
315 1.5660498188261227 1.8519819005281917 -1.4392737586996647
385 -4.3526998136032855 -1.8931605655279813 -3.5590707380896016
193 0.7054570231476903 5.658082107671849 0.7125077963761088
163 -0.37835525101177714 0.6907864780378583 1.7734179411785964
69 -2.3702556951656812 3.423480669070603 -2.4842812650263597
123 3.9937023232691846 -3.647344595982226 -5.6275304754521915
299 0.16753324087283575 -2.1868390270047247 -2.6713491899599098
272 -3.099883685668626 0.2491700634736686 -4.185008727303149
58 -3.6556908232791367 -2.0010954136119685 -4.776091243055484
243 6.078485454147374 -1.5350656745052518 -5.384755221644779
286 0.671431219009965 3.9644244552162857 5.56705832037624
291 -2.48464918407688 -0.9049427120186091 1.2473577230206092
399 1.8773603345681638 1.3192612424193584 1.3430504667141145
254 1.5227733398500687 5.695311304665877 -3.926711765471303
97 -4.359026385129836 -0.518381955929564 3.515201670501622
351 -6.332504898166676 3.1521652804682283 -2.431500327357664
48 3.0925805612994166 4.358846135009041 -3.0550716319526403
301 -4.1014434205346975 -3.4046677524227635 4.686052254338147
453 4.6313380996634645 -1.46888261745698 0.07092274034870724
278 -3.4376095845983405 0.8446502340859111 -2.3957907369410893
466 3.878528352757048 2.9371046630502486 -1.4785050961152533
288 0.7096652270464413 5.256609679146663 -3.1225108409436415
240 1.448331936416885 6.45865178695827 -11.17310937083289
285 -2.0893004041190424 1.5502583358606477 -1.4899349219462996
93 -3.7496377246440975 0.5373724546561484 2.947467578360474
220 -4.733168683708663 4.24318484593789 -4.146327279823453
402 -3.430331192246935 -4.9651639389502735 -0.44863812066286674
74 -0.801264146344414 -3.877975493507736 0.21813262978830578
186 -3.9951456035049397 1.978741054445463 2.1727191479362986
229 -1.6578159723654684 5.564145087165395 1.761088821070228
189 3.868865359747478 2.9998693504292073 6.422100593055334
407 -0.7677855504017927 -0.3875136314680801 -4.35980508884184
381 -0.7618851569268389 1.6371307271182811 6.137139113926097
329 -1.237426872951941 -6.389323818676712 -1.7443973687340633
235 6.00518209051457 2.726898098205767 -2.403680500051883
185 2.3574215164614265 -1.93957865432833 3.9605851524440814
153 -1.6774591408605457 -2.9924215968324464 -1.383412985971091
488 1.9689842615435809 -2.5178974498074824 0.9144131437055636
234 -2.730486450641068 -2.2878233548794285 0.3968856011410952
432 -0.2923475052988201 -3.767215627907399 2.412036111317672
170 7.097990176452907 2.4236030161479567 -9.131334625949574
115 -0.8785617691085095 -2.426464834889297 3.6995979303067905
273 -2.3384318148863716 5.347861630171394 -3.9730509199960853
459 -1.3940404887002273 4.975020596243942 0.7188921507635632
360 6.4513980110417455 -1.388410761014075 6.474318655959797
450 5.5224699410807 -1.288917134491227 -1.9156618150394964
379 3.058896740026912 -1.6499307533224055 0.7895822533628395
223 5.351394406401811 -0.17632470313900242 -1.9959677282040535
61 0.69107383950769 0.08621217223977629 2.206557273568844
398 0.7853633267844331 -2.796119516557152 3.1463838863795317
24 -1.0948932079683937 0.8877444799993733 -4.755708393858185
350 -0.11732560937227128 -1.8023501138877827 -2.0282848905589717
257 -0.6030000813081209 -0.3957640880385415 -5.049991724150012
118 1.8805277623001349 -2.3792752162303974 4.8247800695757315
429 7.332260941802329 4.011761549374915 -0.9831143205635643
112 -0.44181264624533706 -3.986244270798253 0.4647847989051254
10 -1.6122989702221262 0.1776637179458165 -4.431535327172943
274 -3.638212354590123 6.081707754922509 -3.3063709127419743
260 -3.4345708210220116 -0.7524101946794294 2.6965836002549244
395 2.0023410716154584 3.583799480223454 0.5611892674725278
384 -2.920535039157272 5.577518615419073 1.53325343319907
131 -0.1087981870175815 -1.1339826659579477 3.0695488173107663
16 -1.9689186297532142 -0.9686390748147194 4.420446159547653
437 -2.5059551556398953 -4.005491401012416 1.9923280866841917
490 -4.201491498341798 2.969860784552877 -1.169783478904174
95 -0.8710765744958862 2.4343779118573896 -1.9208585475523163
