LAMMPS data file via write_data, version 22 Jul 2025, timestep = 400001, units = metal

500 atoms
1 atom types

-0.26318733666343697 18.150340686664343 xlo xhi
-0.26318733666343697 18.150340686664343 ylo yhi
-0.26318733666343697 18.150340686664343 zlo zhi

Masses

1 63.546

Atoms # atomic/kk

94 1 1.0385120810185013 2.882199826926912 2.3840932041162146 0 1 2
93 1 3.4099041437066058 2.6938718029099586 3.14454825812057 0 0 -1
31 1 2.3724484921659688 1.3520344268281983 1.0574891034127736 0 0 1
70 1 -0.1729562652282101 2.070984834643727 0.48910669698690185 -1 1 0
187 1 2.9304528331708095 -0.11494347388414713 3.3337421647270657 1 -1 -1
424 1 0.4433498065633693 0.6386130818053621 2.740729252404597 1 0 -1
53 1 3.106314371018528 3.8318386362351005 0.8985994622645469 0 -1 0
320 1 8.64728558433864 1.6569011810521956 18.090239037081286 2 0 -2
269 1 4.704601384483628 2.1160363045082065 0.9889816984040568 1 1 0
190 1 5.7947728993564525 3.4737496094532676 3.133760188691566 -2 0 1
69 1 7.45219016639318 3.196759750184403 1.2602540796081854 0 -1 0
405 1 7.845632722744268 2.1050540790978043 3.174142517625181 0 0 -1
428 1 5.47465493615524 1.1385414949654136 3.284418792725805 -1 0 1
208 1 6.684985395241639 0.5422052082955142 1.1786258103232896 1 0 0
42 1 8.510741683307952 4.598538191049818 2.948620461330447 0 1 0
178 1 12.462102101399886 0.11817608074292552 4.160428892467266 -1 0 1
100 1 12.86166414166143 2.4108858110450626 3.987526859057007 -1 2 -1
406 1 9.399011338133072 0.6496810290274369 1.7742199676322699 0 0 1
89 1 9.945813820731216 3.0226082610010443 1.6807549680205887 0 2 -1
495 1 12.446806274048734 3.6637044918527693 1.6234202524030328 1 3 1
19 1 12.050916133446345 0.9490870367106601 1.828514043021624 0 1 2
221 1 10.43855412523116 1.5653360179608748 3.9699955853238 0 1 -1
397 1 13.790711515392285 2.072884136920231 0.121940072141703 0 1 0
175 1 15.017835726089192 3.5039743663923146 2.300691604217193 -2 0 0
103 1 16.458561803830783 3.5074782446297315 0.4597709328822547 0 1 1
379 1 15.790164342914741 0.6795941235567784 0.4872418900530973 1 0 1
381 1 16.69466893125867 1.8330772624870546 2.6140453831996764 0 1 0
138 1 14.413075890012957 0.6718991638897109 2.267749087496247 -1 0 1
87 1 0.24614014994122813 4.578461059531491 0.24895040334387764 1 2 1
308 1 1.6339239874592255 5.500104641453014 2.2680913683739625 1 -2 0
433 1 2.2295341126383668 8.362888947904018 2.2769332208857063 -1 0 0
149 1 3.685842125967743 6.675415219741018 0.8921428632383017 0 0 1
114 1 1.2269798343380596 6.909230791664746 0.5883940619092899 0 0 0
304 1 4.034193546367692 5.1602074075081585 2.962682765117882 -1 -1 0
423 1 0.7182740276062447 8.735777435591265 4.080627243963798 1 1 0
2 1 4.42320258007848 9.264966128879307 0.6565034106224661 -1 -2 -1
318 1 5.642134476881838 4.823015956947305 0.8415028530445505 -1 2 2
458 1 8.075364982947779 5.5955002079748795 0.6043774567022258 1 0 2
350 1 6.4293421521539 7.245668142447089 0.7439749901429977 2 1 1
130 1 6.392922044214034 6.017772270729084 2.7690855772406526 0 0 1
282 1 8.406219433102459 8.324099080264016 0.6286588340637211 1 2 1
65 1 6.920427857318922 9.03510209928999 2.60658787552951 0 0 1
185 1 4.629403364092093 7.916457123065758 2.7624399084634335 -1 1 1
83 1 8.850003772948199 7.186171305919773 2.7381842855533622 -1 1 0
240 1 10.90079223642597 4.061015301373131 3.877701461837365 0 0 1
245 1 10.504118923459062 5.419115384103088 1.625837543450183 1 0 1
268 1 13.145673651067144 6.004850433990234 1.7031346542756767 1 1 0
85 1 11.082266051148574 8.044630781394163 1.19544576170812 1 0 2
346 1 11.350911882212047 6.709780517884716 3.2772062937250657 0 -1 2
112 1 13.271466840014341 4.946573313893085 3.818621413572258 0 -1 1
198 1 13.505630002722992 8.76571181298972 1.3204768053275198 -1 1 1
410 1 14.77577859237358 7.163555736749033 18.093343851434483 1 -1 -1
119 1 17.909178956509905 7.567958928469093 2.198177560566856 -1 1 2
33 1 14.354276989368927 4.3656105197218835 0.022678596348775178 -1 0 1
191 1 15.947228805262595 5.015635697990996 4.304660457768853 0 1 -1
259 1 17.535256258329127 4.331768044115934 2.4432530089602773 -1 1 0
355 1 16.538723789642077 7.667255783475756 4.249567260415306 0 -1 1
295 1 16.926354938302154 6.214144425384734 -0.01219761982557674 -1 1 1
217 1 15.666404057434876 5.757990762422314 1.8877799773793713 0 1 2
12 1 14.036954242419695 7.5345083209134796 3.44959516002819 0 -1 1
153 1 15.792002060669814 8.289475943667666 1.8748359131353969 0 0 0
411 1 17.346971122076518 8.572765925896402 -0.013101016311174513 0 0 0
223 1 1.3050955160138749 11.174990575543964 4.064240058724652 2 0 0
203 1 0.9166479884652301 12.299452803784542 1.8260379520073216 1 -1 0
113 1 3.1769947397949005 13.325326600575007 1.645616405386639 0 -2 2
496 1 3.1566571024329035 9.499330794175636 4.0826095023115645 0 2 0
386 1 3.951528817314024 11.75726730998658 3.883082352378286 1 0 0
487 1 3.0103132947148046 10.691170072890522 1.956651778066636 2 0 0
347 1 0.18661123220782877 9.936080046253476 2.096121695537764 2 2 2
146 1 7.395006720816429 12.581264284605771 -0.12029282616732498 1 -1 0
337 1 5.427374760278765 11.25512425148808 2.122297921840344 2 0 1
174 1 6.542453931486799 12.846271125789023 3.909840177102065 0 0 0
34 1 7.791004575555959 11.318327627857066 2.1712034356799004 -1 0 1
500 1 6.695657815044323 10.314432543164367 -0.051636183846692954 0 0 2
262 1 5.3926135953334695 13.851808366594742 1.7009702632121582 -1 1 0
40 1 8.11256775758935 10.034545807854176 4.521370550797722 -1 1 1
209 1 8.88657768496962 12.4665231562714 4.508997569148744 -1 0 0
7 1 9.254500657911294 10.603023213432579 0.30586846961952313 1 2 1
227 1 9.865067376008795 13.50505629650586 0.23099944998857377 -1 1 0
107 1 9.616118643488205 9.623761123109718 2.5135276551043346 0 0 1
258 1 11.822335650372052 9.06346058083249 3.32992029842115 0 1 -1
340 1 11.43955649597677 10.853681251652995 1.1981563537452204 1 -1 2
88 1 11.209228932401492 13.347678522133252 4.677727615473048 -1 1 0
205 1 10.026412346750986 11.992743511623745 2.390695038348611 0 0 1
104 1 12.723384912193236 12.040431747195424 2.9643641848075406 1 -1 0
391 1 12.041375580667227 13.352538191655515 0.9459239088469172 0 2 2
364 1 16.783210603251526 13.233794735983222 1.700910531533016 -1 -2 -1
492 1 15.036944574268011 12.633991267010845 3.3295688610186045 0 2 0
63 1 14.529565938857104 9.99783893171821 3.205918896359802 -1 0 -1
325 1 16.462401180873684 10.974139559393084 2.0729326741827356 0 -1 -1
132 1 13.970332188803889 11.47114935778003 1.2416682743082144 -2 -2 0
284 1 16.978032692272002 9.922577601689705 4.206955683502847 1 1 0
124 1 17.889421062920768 12.756434391849446 4.019293369179334 -1 -1 -1
36 1 1.7881168019451987 13.554338841605695 3.8749276282265606 0 1 -1
354 1 1.2728164445081753 14.700225213280577 1.662037049791938 0 -1 0
30 1 2.368030968656821 15.925611508999575 3.867329728563057 -1 0 0
305 1 -0.18382483053453968 15.648604371764709 3.5840969812414234 2 -2 0
457 1 1.6561623747654994 17.031074550821558 1.4863951936821869 1 0 0
236 1 3.8006510112988554 15.756133775019274 1.2334968317503434 -2 -1 0
229 1 4.393969833251527 14.339826906019598 3.6724587746243356 1 -2 0
450 1 4.403637857918673 -0.25945628610442384 1.2893056614131213 1 0 1
60 1 8.20001989409503 13.784287056689863 2.1433444912096817 -1 -2 0
390 1 8.45241056092474 17.428427832090534 -0.07718996105763364 1 0 1
331 1 7.938462015842102 14.973749512630569 -0.03227217359181589 -1 -1 -1
432 1 7.389405464227092 18.11181486215775 3.4480566257827587 0 -1 0
426 1 6.931750792350584 15.47417190175577 3.6902462211694456 -1 -1 0
348 1 4.984177119147395 16.996918845067427 3.358108108256899 0 -1 -1
473 1 6.307614033961246 16.304601528734217 1.1723995495181554 1 0 0
18 1 8.780869183087637 16.297868252592195 2.294055661051167 -2 -3 2
469 1 12.11266136464158 15.838091861105726 4.701396504070082 1 0 1
115 1 10.852011615717332 -0.06672984339316354 -0.2115907717757172 -1 0 -1
328 1 9.212628071675601 14.920057558087988 4.401487615273267 0 -1 0
156 1 13.261402341003333 18.105633280259248 0.29682404633031706 1 0 0
365 1 10.065342928418632 17.53208573710345 4.300566429124822 0 0 1
312 1 10.258792706775614 15.7582468770635 0.33579383035262533 1 0 0
224 1 11.041411927228177 14.70539938471155 2.713092200430842 0 0 0
441 1 12.851660933555207 15.703356298440948 0.781210346019524 -2 -1 -1
14 1 11.210505701733972 17.128315398232147 2.1209151525358805 -1 -1 1
380 1 13.221775571238858 14.500792708713188 2.8571391667535484 0 0 0
253 1 17.80798402249124 17.95605476709643 0.6473452854981888 -1 -1 2
76 1 13.57813647392555 16.76622697958645 2.939211751511159 0 0 1
247 1 16.532828623070806 17.595195001721045 2.770923746890611 -1 1 0
456 1 15.173810715361798 16.453151534008434 0.9670893070790634 1 0 0
491 1 17.496153312318015 15.638526059191427 1.1974311696919087 -1 2 1
377 1 15.796614079072826 15.093387451210907 2.9699461838409946 2 0 1
459 1 14.579490152307802 14.072732710650824 0.7987332506581717 1 -1 1
324 1 0.01583055839418751 2.1230914286307883 6.897284489736537 0 0 -1
67 1 2.4147748829315714 3.000408704840016 6.6991182932725755 1 1 -1
160 1 2.0971704179737856 0.301941502599283 6.9710742750273536 0 2 0
194 1 17.79052638617774 3.129574262883125 4.644404833974624 -1 1 0
402 1 1.8180456706630248 4.142281531642112 4.522642150753331 0 1 -1
356 1 1.567608868554852 1.5119809014841474 4.720684529985659 0 0 0
302 1 0.7960691055492279 3.536452130828167 8.90382376102638 2 0 0
286 1 2.993662249312074 1.7998300575630046 9.020051783021868 -1 1 0
257 1 3.9998543571747653 1.5764656554546266 5.393468383465704 -1 0 1
139 1 4.5265865833341765 0.2372340860531985 7.689559413354343 2 -1 0
462 1 6.910952681238083 1.132004455309677 7.412685234856908 1 1 0
21 1 6.496063515276869 2.4820173938506884 5.472813476780011 2 1 -1
408 1 8.275488673795671 0.833445604651992 5.391663935770571 0 0 0
453 1 4.823687283351111 2.9606087849097107 7.290961846603573 0 -2 0
186 1 7.445698905752009 3.8314716599950227 7.115751134002632 0 1 1
385 1 4.589918485510678 4.2485789538141 5.1399905160342225 1 0 0
29 1 6.013373980905768 -0.24227757879883524 5.3419796257253465 -2 0 1
99 1 8.929633338009427 3.3300828711084693 5.090020027194983 0 0 1
447 1 11.07501487866007 0.5294445396027315 6.07778800039324 -1 0 -1
481 1 11.32618584254889 2.969182792809314 5.940165336081609 -3 0 0
454 1 9.278623660930185 2.316308694268794 7.373201364246109 1 1 1
264 1 11.87187820443493 1.9317220720712265 8.258909467634188 -1 1 -1
9 1 13.380643086538806 1.6104895887006363 6.253489061039866 -1 0 -1
285 1 17.305717610704853 0.6301402313663221 4.8683805689640325 -2 0 1
497 1 13.91288607099422 0.10551490301557359 8.376684201242101 -2 -1 1
214 1 15.944622561268426 1.0410256413846584 6.855514670054793 0 -2 -1
144 1 14.512744179138764 2.8017813986643207 8.116134527421725 0 1 -1
416 1 13.921557476304262 4.067946959381717 5.997045282694791 -2 -1 0
375 1 16.331740890021457 3.8467424113776003 6.433810046277462 -1 0 0
86 1 15.446072480996753 2.2735153117378797 4.7237469076173975 0 1 1
75 1 18.03581581313639 17.754401103946392 6.879349779816307 0 -1 -1
106 1 1.7256376917032976 5.968228223829597 8.677191303889018 1 -2 0
61 1 0.4146590577726085 4.68012736660479 6.352173210578015 -1 1 0
183 1 3.7171793434457823 8.06895099343391 6.24222957835411 0 1 0
255 1 1.1955961614967803 7.128038905573583 6.266930040722295 0 -1 1
396 1 2.8487838586262333 6.579968861103074 4.366845266820357 1 1 2
233 1 3.212211197989294 5.704984230002729 6.682000826553293 0 1 -2
134 1 2.3077530148343066 8.257557743906522 8.323876023539762 -1 1 0
292 1 0.005483636056706764 5.972764550664188 4.0716102859197205 0 2 -2
143 1 3.547918065455693 4.19423089333454 8.896704916888426 -1 0 1
471 1 4.498470913123235 6.678133331259696 8.765830849186965 1 0 1
181 1 -0.08101990733212708 7.661674483861894 8.665077961679522 1 1 -2
290 1 5.71052697991844 5.508443966002027 7.013866692684057 -1 0 1
479 1 7.001868864962121 5.108272273367933 4.986053283590451 -1 1 0
37 1 7.727719001003603 7.695727494960879 4.84627378488862 -1 0 0
207 1 5.248636945560786 7.018381233679739 4.826216310996016 2 -1 0
176 1 8.295932685755155 6.495469059344683 6.995660434324258 -1 0 -1
164 1 6.159367536729676 8.624854739670903 6.659681724942178 1 0 -1
303 1 9.136289314892013 7.673623587382312 9.262097933680428 0 1 0
182 1 11.647291811707298 8.389977433119384 9.062438902168148 -1 0 0
439 1 10.15796093809452 4.666652285639616 7.00596108917659 0 0 1
122 1 11.930361533382003 5.824193641630767 5.823950178931221 1 0 1
249 1 9.546923380224118 5.76114495536738 4.642435867894712 -1 1 1
420 1 13.173845713803093 6.877491157551421 7.669399401286622 1 0 1
434 1 10.60505845261763 7.515033762426644 7.07823195218767 0 2 0
468 1 9.983223723015618 8.39379404663653 4.845320258994506 1 -1 -1
349 1 12.784175182724306 8.20886841624427 5.517292649507291 0 0 0
279 1 12.552003462679473 4.15976306045723 8.00544730846672 -1 1 1
17 1 17.421303864208838 5.270435215878337 8.734895776104617 -1 0 -1
79 1 17.105446397940092 6.366989731387337 6.570496391402579 -1 0 1
360 1 14.630349789716382 6.352198793320847 5.600229154151712 -1 1 0
47 1 15.099454101074764 5.224395017151219 7.9330055419396475 1 0 0
35 1 15.508936138469545 7.5927597661209125 7.789624061817754 -1 -2 2
110 1 15.078070190294175 9.183242698530986 5.379128091881688 0 0 2
52 1 17.71962813270938 8.791265679226202 6.409990492006717 0 -1 -1
41 1 1.7565779113117044 9.574694592938469 6.227241780011997 1 -1 0
133 1 2.402035172104728 12.088600268211465 5.972240289161703 1 0 0
148 1 2.7596182822949475 11.185276130279094 8.348785307359275 0 0 0
277 1 0.3000366442090475 10.077252935391925 8.321322208941481 -1 -1 1
142 1 1.0041974489019336 12.761716091124477 7.823948928019064 0 1 0
445 1 18.10959653940776 11.265304423037358 6.115818341867712 1 0 0
301 1 4.31594162423367 10.40460219386693 6.410509670764231 1 -1 0
389 1 3.501884747156884 13.447431213166714 7.896733997029105 0 1 0
376 1 8.627844340362364 8.958750930565918 6.804057423318518 0 0 -1
431 1 5.5680786797361055 9.804135080055053 4.280901646799546 0 1 0
58 1 4.9504932995417485 12.836674210641178 6.007673527986356 0 0 1
212 1 7.0722662196934145 10.278311743419144 8.457385009751539 1 0 0
463 1 4.515781499938925 9.355374886626352 8.450569554420122 1 -1 -1
118 1 5.237780276378063 11.747374034151795 8.376935736075689 0 0 1
196 1 8.165716514390802 13.188743525562073 8.013372999367812 0 -1 2
200 1 6.814807039374728 11.424771744574558 6.105724407478962 0 -1 1
393 1 12.644836946276415 10.988214423193485 8.989094475309372 0 0 0
383 1 9.923603315474963 10.265685818368725 8.971363761451226 0 0 -1
243 1 10.40120052861792 12.566672629591269 8.642741668663644 0 -2 0
20 1 9.362253241900339 11.362825962521201 6.764164320261306 0 2 1
246 1 10.695786479416489 10.82856614656863 4.684199094883172 1 0 1
414 1 11.199951290050322 9.888271321592645 6.7703351901392725 0 -1 0
199 1 12.008337804624297 12.385707661628437 6.743942339426442 -2 2 1
167 1 13.20593608986924 10.83091714722422 5.1300269194087065 0 1 0
330 1 13.743958534314256 13.268983175613789 5.250870622661644 0 -1 0
155 1 13.573480612087677 9.220969352027671 7.512176177420172 0 -1 1
403 1 17.01441592277397 13.066332608334509 7.606031680271673 2 0 -1
288 1 14.408985162203923 11.795977966921487 7.454150470707895 -1 0 0
213 1 15.846177198273823 11.637052750607657 5.436332828949533 0 -1 0
39 1 16.083437231020774 10.309113824202937 7.314053078367715 -1 -1 1
129 1 3.9469819691829606 16.388616411764914 7.600654221922905 -1 -1 0
357 1 0.3311265515785178 14.076508702563315 6.021733309381343 0 0 1
201 1 1.398973080859065 16.07845407878498 6.501164144356455 0 -1 -1
400 1 0.643323474886365 17.62461121380001 4.615695190400327 0 0 1
170 1 3.092026396223271 14.51085852544913 5.675458769929653 -1 -1 0
401 1 3.4711473484688216 17.3022980776664 5.536785736139989 1 1 1
202 1 8.551591410149117 15.572375554583537 7.861595538398246 -1 -1 0
171 1 6.65688285290576 17.06723832665235 7.751066943917372 1 1 -1
25 1 7.9504529484503745 16.57783763277081 5.4823072746643104 -1 -2 0
430 1 5.354313525584149 15.750889197764971 5.671062200645401 -1 0 0
101 1 7.283697912128828 14.086620089468687 5.807614689860742 0 0 1
359 1 6.02503389798486 14.507195336571831 7.7643594708040755 -1 -1 1
150 1 9.030463070977364 17.95561182335974 7.375221230770617 -1 0 0
8 1 11.490857355591475 17.889387255115004 8.81101127835199 -1 -1 1
169 1 12.657790235338089 14.994765057324587 6.684165179093738 -1 -1 0
490 1 11.196637621211995 15.180249291231618 8.769610121483751 0 0 -1
95 1 13.226395677908387 17.374330600805997 6.274233096224885 0 2 1
57 1 10.675057694787782 16.448887921283983 6.625613856755942 -1 -1 -1
326 1 10.169547698962376 14.050053535787692 6.805183087009554 1 0 0
483 1 13.24664893845874 16.217798735034606 8.709724722172401 -1 0 0
373 1 12.788516675580704 13.372625478074083 8.955862130244602 0 1 0
421 1 14.935137359982164 -0.052244590699203286 4.717353062229062 -2 -1 -1
370 1 14.509776301562885 15.739125668366077 4.9608156984642235 0 2 1
419 1 17.554746988692543 15.435749661010524 7.328912190319931 -1 -1 1
55 1 15.645173613014842 17.092492200472186 6.995121871004285 -2 -1 1
297 1 15.123922142644778 14.792781974815655 7.488143710160581 -1 0 1
276 1 16.74540670063216 16.341561611578882 5.026040841763207 -1 0 0
195 1 16.407135735781395 14.175782523386067 5.366060823990921 -1 -1 0
313 1 1.765550229582919 2.249120883582863 10.841733402100711 1 0 0
32 1 -0.17222625242789544 0.22281674275646624 13.540045974123856 0 0 -1
478 1 4.098837941071768 3.0077018420080046 10.917614727627438 1 0 -1
261 1 3.5272250695799605 0.5625307179853914 11.530081768289774 -1 2 -1
197 1 2.213368572675554 1.341741856499069 13.474893219425713 0 0 1
271 1 0.5822904417584363 0.9687844920971211 8.951969318311582 1 1 0
394 1 1.1937896128256922 -0.17845423503898955 11.39848982490065 0 1 1
102 1 0.260653318161583 2.7311766180736003 13.008047481419773 1 -1 0
477 1 2.5992733937071018 3.5444037001905007 12.855727696026099 0 0 0
334 1 4.686886900178633 2.0452063273271626 13.344565770196706 0 0 -1
443 1 7.949272545054653 2.326089308210826 9.252879231924878 -1 0 0
157 1 6.513617346896919 2.854797731377744 11.614487556580457 0 0 -1
189 1 5.954545301994808 0.5589709090068063 11.963116815605398 0 1 1
163 1 5.569036610690944 1.6718370134596134 9.523155352468818 1 -1 0
440 1 7.3077469066627625 -0.12773739791725766 10.030003252565107 0 1 1
159 1 8.424452293770056 1.4724219272033887 11.474694726257418 -1 2 0
409 1 5.195972963007274 4.173049895515522 13.036226373985848 0 -1 0
294 1 5.907610869248623 4.235529140895272 9.579269438762728 2 1 1
316 1 8.578110876052152 4.2951735390379975 11.343576755733617 0 -1 1
235 1 10.126929944339631 0.9440761982654651 9.754374042171612 0 0 -1
336 1 11.06119402107092 2.475936416605805 11.807588848545258 -1 1 -1
444 1 12.937088897037647 3.256487665234553 10.275250525337531 1 1 0
442 1 12.591412305532444 0.7665315556169907 10.52581907480862 0 1 0
425 1 10.17510060427621 3.387236008152021 9.49709748932527 -1 -1 0
204 1 10.525448580070854 -0.029618330286925842 12.16476423464512 0 -1 -1
476 1 13.031713962757363 0.1110593694062022 12.785834845610754 0 0 0
343 1 16.968091869465184 2.5633485134247964 8.963723051024903 0 0 -2
239 1 13.724067421096871 2.4641821686453738 12.403542855949578 -2 1 -2
188 1 15.501398604427783 0.7042972030833897 12.427215178863129 -1 0 -1
422 1 16.3590830546352 -0.01272274866641887 9.037512548847374 1 1 -1
489 1 15.193236678732431 1.66816484060784 10.4388749021995 1 1 0
26 1 17.805129807569088 1.4810381772795354 11.14099668226204 -1 1 -1
162 1 16.189243310301826 3.1553204050395904 12.410797977026125 -1 1 -1
352 1 17.820183423597882 4.094371998603813 11.076488938513931 -2 1 1
465 1 0.7803801427157926 5.4440064525331255 12.759370230469976 3 0 0
451 1 1.856530218118019 4.974875739492636 10.805533695204366 0 1 0
10 1 2.469366161533691 7.3287194723462 11.031832031359556 -2 1 0
166 1 3.19963257815239 5.89489174680433 13.341250738169544 0 2 0
399 1 18.135908798445502 6.590171893180272 10.800092060641921 0 1 1
123 1 3.7978826301723903 8.343889864714445 12.877900535424784 0 -1 -1
152 1 1.126426740858593 7.748136883994528 12.917814059433438 0 -2 0
358 1 6.697271229146251 7.740739306992534 9.03245834579969 0 -1 -1
192 1 8.062296493323199 5.859349664278894 13.228146839451018 -1 1 0
467 1 8.510888815155322 8.489246362945464 13.022860340811475 -1 1 1
131 1 8.468477448240995 5.218575316070683 9.124520217567738 1 0 0
353 1 5.157356744537396 8.11919902062316 10.855118056714304 0 -2 0
311 1 4.6186707905556466 5.393454976571999 11.194899925383533 1 0 0
244 1 5.666194062115729 6.805342101291497 13.041486255030136 0 -1 -2
296 1 6.919389305676539 6.317111780602711 10.941662534819557 1 0 0
345 1 7.791091039530407 9.207788294647894 10.817772127094962 0 1 -1
322 1 10.55532546701059 6.336850809264765 13.678473139521081 1 0 0
242 1 9.41073765695615 6.8009951994976365 11.45248542686892 -1 -1 0
256 1 11.549984410481056 4.974041952122127 11.495782200303468 1 0 -1
56 1 10.97500495380475 5.881030272478327 9.438680037462737 -1 0 0
371 1 12.174974240333157 7.635994144658683 11.467392416106591 0 0 -2
54 1 13.323219773016312 5.93802323811516 9.891678281338233 -1 0 0
273 1 15.376999677292943 4.270368859372136 10.287897785352163 -2 1 0
460 1 14.090216888761564 5.075942557115718 12.116877217907602 0 0 -1
108 1 16.42018744619925 5.740000689299988 12.354498436655048 -1 0 0
234 1 15.772742370134909 6.6387467572034335 9.99559055453136 0 -1 0
46 1 17.37161289220076 8.284697627095653 12.180401961308439 -1 1 -2
388 1 14.767698571238913 7.441430375900988 11.941314571475486 0 1 0
404 1 14.194757468406658 8.293488814349379 9.547351802847988 -1 -1 1
332 1 0.8488105959706234 8.963344424470721 10.61832459033114 1 0 1
22 1 2.8182746788465534 12.584791149750934 12.39956433849386 0 -1 -1
172 1 2.9972706370143136 9.814134899334048 10.471282410334878 -1 0 -1
299 1 4.1355422358136416 12.084343148115034 10.432236113878156 0 0 0
228 1 1.2085053524477787 11.58275234211765 10.347717498011933 -1 -1 0
136 1 1.8070643290156618 10.227196500252449 12.70491360941789 1 -1 0
216 1 18.149356922111252 13.251155044044184 11.624554266721246 0 -1 -1
437 1 4.44403241604518 10.784743651644176 12.407918885545286 2 0 0
368 1 6.243053612728911 9.424378949108945 12.786910477089878 1 -1 1
16 1 7.040771699608654 12.224210269819638 12.162102293995215 1 -1 2
494 1 5.793570581454293 10.431510814947005 10.40252407803668 0 1 1
219 1 8.308972485927022 11.989273142835186 10.153695432850268 2 1 0
193 1 6.495686539730894 13.305394888188612 9.922808618680719 0 0 0
372 1 10.171645622784732 9.109163201553473 10.995163145295082 -1 1 1
339 1 10.8828269865924 8.68384436404426 13.19936023591133 0 -1 0
438 1 11.744861057519083 10.935557636960041 12.720882846525079 1 1 -1
488 1 8.850370393507081 10.828008982114769 12.697671425035386 1 0 -1
84 1 10.690735457795373 11.607680971608774 10.840607652515148 0 2 0
415 1 13.024852045415374 9.815581502789714 11.222140604554063 1 0 -1
252 1 13.272295867366381 8.972835664437834 13.551412880674812 -2 -1 1
125 1 13.277605413307775 12.442287079344911 11.320309319626407 -1 0 -2
407 1 14.233259698214152 11.592701563307307 13.310650580879987 0 -1 0
206 1 16.884138665322745 9.255333705655797 9.682439127125217 0 -2 -1
230 1 18.004709011158788 10.798228352381852 11.879644579107204 0 -2 -1
382 1 15.526500261928614 9.756133245017763 11.65403120053835 1 1 0
11 1 17.3485858020137 11.540643980027342 9.514881291755922 -1 0 0
137 1 15.025860098961278 10.809306649839934 9.6687567730138 -1 -1 3
44 1 15.948543929110512 12.277030611682958 11.81981527045221 -1 0 -1
127 1 4.154084843806644 17.680077023332032 13.505723442584523 1 -2 1
327 1 0.953486468422075 14.573129209302305 13.769025850220515 0 -1 0
474 1 3.5542389639326255 15.31169507518821 13.761952359674131 1 2 0
335 1 1.5704534160843917 17.061223866569613 13.447072373275994 0 -1 -1
68 1 2.0923091717345805 13.743412408727023 10.523868891009572 -1 0 1
306 1 0.49266294971768687 15.717092179884913 11.549382838976856 0 -1 -1
59 1 2.9077758137072727 16.249996648950585 11.361611528130409 1 -1 1
49 1 1.7913940313573269 14.944600432834351 8.552950436596657 0 0 0
362 1 2.652294613351651 17.476683474069006 9.227292676021591 0 0 -2
464 1 -0.054115251628778976 16.789266253415704 9.495261860854857 0 -1 0
392 1 4.670202586447671 15.22629221518047 9.65464530301815 1 0 -1
121 1 4.696642588674933 13.780654354043575 11.861301018157324 -1 -1 0
28 1 5.0839731086359325 17.575477703130872 9.978011314379414 0 -1 -1
109 1 7.621977335759901 14.69936294585494 12.049686449812434 -1 -1 0
323 1 5.5489826450068565 16.29037748267917 12.132202853580317 0 -1 0
267 1 6.893265470065207 15.829672945822237 9.944809840095093 1 -1 0
77 1 7.932736888804545 17.295013826839423 12.188474212346028 0 1 0
48 1 8.899476412512685 14.365980662410621 9.975208974664863 -1 -1 0
179 1 9.537756707977191 13.25083597222164 12.455231429270182 -1 -1 0
147 1 12.085725058188824 13.480723263170756 13.019764076342526 1 -3 0
412 1 11.197999871895993 13.974236839262392 10.828201181539656 2 0 -3
250 1 9.559886814985775 16.91956659062555 9.918779702355549 0 0 -1
395 1 12.867909607236866 15.843108855938228 12.93283000458121 0 0 0
317 1 10.332059893749566 15.899549245587876 12.407768047276258 1 0 0
452 1 11.834560126566586 16.754289464006632 10.834294991694655 -1 -1 -2
342 1 13.970556458357406 14.900843923990168 10.936447478279945 1 -1 -1
90 1 16.980516963117836 13.833442716720944 13.916478857279479 -1 1 -2
141 1 17.63251305440256 16.425798148386995 13.685086880213937 -1 -1 0
62 1 15.224272757125725 13.302995841866366 9.582720156959661 0 -1 0
446 1 17.80284188132881 14.337667686946864 9.637577051455645 -1 1 -1
215 1 14.475388400232466 14.099115246488168 13.298886457714918 0 -2 0
82 1 15.968739431386576 16.075986956376326 9.536252529375856 0 1 0
241 1 16.917720411800566 17.34393817176265 11.4144980146275 0 -2 -2
333 1 14.414496857180675 17.53127289504802 10.706152863732775 0 -1 -1
499 1 15.206153506844808 16.443611528175616 12.902027171384951 0 -1 1
270 1 16.472750504313282 14.921638977461546 11.672660404994348 -1 0 -1
165 1 1.7073242337138272 2.8509675315022984 17.34814309681043 0 0 0
98 1 1.2805025003641324 0.33914580789277693 17.685293448742733 0 0 0
427 1 3.545565130347895 0.9344956492322791 17.439425335512528 1 -2 -2
448 1 3.2640944949504878 2.2695677065443944 15.29031987057432 2 0 0
378 1 0.7559320038331079 1.593304013409251 15.45157220608214 0 2 0
275 1 4.485086680801359 3.5080768618078246 17.248807590180974 2 0 0
344 1 8.360363485351927 2.7827130032292757 15.899077343817611 -1 -1 0
417 1 7.710104786508687 3.360857318797335 13.709903995387279 0 -1 2
91 1 6.251701068125874 1.9105388515944437 17.504755579851114 -1 1 -1
222 1 5.79468052934144 3.0119150908033583 15.300424242941338 0 0 -2
266 1 5.29457668118915 0.5519070479159787 15.523749415439319 0 0 0
319 1 6.905535135944756 1.154291337303991 13.945022168619678 2 -1 1
461 1 7.758362481451909 0.12864957800365207 15.984312569458428 -1 1 -1
238 1 9.340853053028306 4.015266091359638 17.73471071098634 -1 0 -1
50 1 10.633479839118642 3.1261193966238583 15.684783206318654 0 0 0
71 1 12.908651600972538 3.6268666536778156 16.381375340507216 -1 1 0
298 1 9.994217627961296 0.46680254252444364 15.983619488798563 0 2 0
251 1 12.238736952366967 1.207830474748891 16.623908803167947 0 0 -1
289 1 11.830511770973118 1.665385952905 14.309825230113432 0 1 0
366 1 11.045099457017107 2.564146534506921 17.875510030341587 0 0 -1
74 1 9.456949172120654 1.5383492196284128 14.061098818633155 -1 1 1
210 1 9.916486275708124 4.124029277939187 13.574136146112817 -1 0 0
418 1 15.021357774226884 2.585438937327575 16.58680132371418 0 1 -1
161 1 16.733165684387252 2.095064913908205 14.599551837164755 -1 2 -1
480 1 14.296426984318519 1.3124131364518714 14.625003850541512 1 1 -1
51 1 16.99275771550588 0.8207510765125916 16.863799338807116 -1 -1 -1
158 1 17.699145641049085 3.3696167085993336 16.521017918252255 -1 1 -2
105 1 14.980637283398423 3.839332213458732 14.553219876609784 0 -1 1
280 1 14.654699944129971 0.24044447743148578 16.707225067493372 0 0 0
23 1 16.1425035875548 18.028437329074094 14.907328361399655 -1 -1 0
367 1 1.727523986796303 6.525270935294214 15.095272927018787 1 0 -1
278 1 2.7082582494209895 5.287397651549876 17.33675517274568 0 0 1
1 1 0.4033840848869077 8.460005476075773 16.61574279101356 0 -2 -2
254 1 -0.058546065403800585 5.8382597820603275 16.59461343494368 0 0 2
38 1 3.754001976425311 4.548824291867622 15.229403915909199 1 1 2
96 1 2.767647185907909 7.726095733195858 17.125728794827246 -1 2 -1
398 1 4.190599454396714 7.0886890447000175 15.171601850162325 0 -1 0
413 1 1.3208963617679965 4.101079936914535 15.303727841738272 1 0 0
180 1 6.7952971765191 4.3770604971009535 17.198672791866287 0 0 1
66 1 6.0776284184390565 5.492210386186608 15.154931350866473 0 1 -2
177 1 6.745654625823858 7.948158598008078 14.809930235932793 0 0 2
3 1 4.875563948632001 6.077824017837427 17.272308576718412 -1 -1 -2
80 1 7.5191253749891604 6.924717232734232 17.007036570042143 -1 1 1
315 1 5.411056476111703 8.481790411314122 16.789957461064077 1 1 -1
81 1 8.73482408812329 5.294890233431019 15.665236028848097 0 0 -1
168 1 12.167232447557915 3.9853346152783384 13.724681297105835 0 1 -1
173 1 12.983277588841059 6.477242866788842 13.798470062671568 -1 0 -1
341 1 12.607751570944213 7.520483046570959 17.638818840985852 0 0 -1
291 1 10.049976330131658 6.685668886308269 17.421285092731107 -1 1 0
321 1 11.342539248284616 5.432887478026626 15.772844509872828 0 0 0
293 1 9.187414818278022 7.662669313750497 15.46424771354574 -1 0 0
154 1 11.640430793986276 7.942893978723722 15.373356882591889 -1 0 -1
116 1 12.116212356546662 5.127515894013602 18.123711166136186 0 1 0
120 1 10.58193384941237 9.166921236812323 17.308796723660958 0 0 0
4 1 13.606554690249487 5.911961741494329 16.153903096688524 -3 1 -1
287 1 17.360151373261573 4.724601456258022 14.449397071502261 0 -1 -2
24 1 15.865075881413388 4.887445104879128 16.68333108471327 -1 1 -1
237 1 17.65479729592532 7.039202351286605 14.290369479296627 -2 -1 -1
369 1 15.303240870822485 6.230942047426394 14.468327384713856 -1 1 0
211 1 16.64135804154904 7.663261473523851 16.33943114267099 -1 0 -1
449 1 14.101199377957242 8.319338951848575 15.881850897064702 0 1 -1
145 1 15.672631197902364 9.047891446280763 13.825022697760172 0 0 0
73 1 2.2964257912525343 8.969066771521941 14.749605257966818 0 1 0
363 1 2.988195840201797 11.396924696147684 14.661261878762529 1 -1 -1
27 1 0.8653351705129422 10.960907036372022 16.287645679151055 0 -1 -1
283 1 1.5116341229020338 13.307999323954839 15.732672068517914 0 1 -1
184 1 0.8022384387658283 11.983216884929355 13.787331114104033 0 -1 -1
338 1 3.267881954519731 10.249410758798328 16.988697564864886 0 0 -1
435 1 1.9265264898580927 12.026981618531023 -0.11335736413143493 1 1 1
307 1 -0.06554644032072215 9.62010466289022 14.263802620424636 1 0 0
5 1 17.829174106396806 11.237464467212025 0.06376416338839765 0 -1 0
6 1 1.5567350546211949 9.669308139882924 0.10857909928342148 0 0 1
111 1 8.0046208694036 9.165504919647828 16.86093681072472 1 -2 1
231 1 7.488358634344872 10.367752459284052 14.606734623264648 0 0 0
310 1 8.069760686802452 12.97082738186753 14.381567898419915 2 -1 -2
351 1 5.686915614557492 12.38455750663309 14.277164864136301 2 -1 0
498 1 4.714789584839112 9.651157321969096 14.739962673721905 2 0 0
485 1 5.8578468295432735 11.02940789961939 16.391017798837357 2 1 -2
97 1 8.424267861351376 11.536061430260908 16.451701769056367 0 0 0
265 1 4.608996576354006 12.363029155094518 18.12943568757342 0 -1 -1
309 1 12.828726304428958 12.625915419675867 15.115135329410398 0 -1 -2
128 1 9.941297127829058 9.947145963679777 14.932445483007394 1 0 0
314 1 10.970374957069849 11.882762814775997 16.948799203206672 1 -2 0
470 1 12.4322930448161 10.297785914275174 15.489429458449393 0 -1 0
361 1 12.881393172435915 10.451994663630861 17.850915828613566 1 -1 -1
43 1 10.291617037903851 12.336228039989393 14.62990615429401 0 -1 -1
263 1 13.557778661084802 12.673092958148139 17.481718184666573 0 -1 -1
92 1 16.576328683205837 11.35658586983275 14.017283170282548 0 0 0
429 1 17.17003591535928 10.150890166020641 16.229007087763797 2 0 0
466 1 14.753879859107721 10.90706017008056 15.645440213366411 0 -1 -1
72 1 17.51384503628767 12.719323567673912 16.27019894709194 -1 0 0
486 1 15.298625089580977 13.287988607036262 15.821442694113326 0 -1 -1
232 1 15.800904494455223 12.153743034443822 18.00410692097479 0 0 1
482 1 15.07246042118726 9.814489203733858 17.868114111435844 -2 -1 -2
117 1 3.99848677439995 13.69123467099944 15.723074766371942 -1 1 -1
45 1 2.063582307676452 15.776932604750238 15.78943889641876 0 1 -1
475 1 3.2753510675611244 17.19494264612115 17.838062760673296 1 -1 -2
329 1 -0.0001305658332219073 17.757819817330308 15.83722962424669 1 -1 -2
374 1 0.6743926064296139 16.27718259134987 17.598242684891805 1 0 0
135 1 2.8281428002669484 14.36404967009441 17.797688879599036 0 -2 0
78 1 0.37354969419782047 13.86674355913912 18.11259598217297 1 0 -1
15 1 2.72024654565941 -0.12325047599248495 15.53621808434644 -1 1 0
436 1 6.785832370810987 13.606484816019927 16.331673221720788 1 -1 0
225 1 8.572772637712625 15.195272343286296 14.21249949912644 0 -3 -1
300 1 7.289873626483044 16.067032883671764 16.44954146707939 -1 0 -1
387 1 6.779081357452112 17.220266823242746 14.249729604785031 1 0 0
455 1 4.594269269139006 16.561154581885752 15.619611031587851 -1 1 -1
281 1 5.744658812734616 17.673037608975164 17.63168202378923 0 -1 0
248 1 6.181522575601113 14.72790726035862 14.456589253293533 -1 -1 -2
272 1 9.330765389696085 17.369802627104498 13.923425507939816 0 0 -1
260 1 5.1300555168205575 14.966032575030471 17.776200025831827 1 1 -2
226 1 9.289879712758964 13.882093828164809 16.31776686271581 -1 -1 0
274 1 11.735998133907666 17.397964086064896 14.48803916395368 1 -2 0
220 1 11.684341934814624 14.432995902535133 17.178174618220783 -1 0 -2
218 1 9.834366948569697 16.444520600597784 16.288560704977808 -2 -1 1
472 1 10.95634222821522 14.88587667575692 14.522801121386053 0 0 0
126 1 12.14394448618849 16.90862993506292 16.796716055548053 0 -1 0
493 1 13.958898542586061 17.18783430028884 14.9545738055586 1 -2 0
384 1 18.048808358397395 15.011001960067775 15.773827791214536 -1 0 -2
140 1 13.30309350325992 14.954034753315208 15.302167598029627 -2 1 0
484 1 16.7667653614987 16.6810798438281 17.010514885645335 0 -2 -2
64 1 15.73124157911887 15.497766127129005 15.09988818161305 -1 2 0
151 1 16.45976223568684 14.459929406025406 17.717695730274645 0 -2 0
13 1 14.398724605095765 15.832072492127784 17.206852556053658 0 -1 1

Velocities

94 2.052357270432811 -0.7880997961587435 -0.05472521610447108
93 -1.3994417360139157 2.6441557145077983 -2.3266729150700205
31 1.6204169917079234 2.8832718691753882 -4.955745102377761
70 -1.8139216017494744 -0.0812090811321577 3.2216760098849844
187 6.628810437545962 -2.1537719042708634 -1.4309175878326528
424 11.214324216215209 -2.3718870328019857 -0.9173323711987719
53 0.6406115169152087 0.3478700395997712 -0.884325449266378
320 -5.618999860429054 0.795280548437386 5.939354201315135
269 -2.758226756452981 1.4647526162127331 -3.5099437977752865
190 -1.7659918239638117 -6.985108860800734 0.9564301260123627
69 2.7182216240744674 -3.7622874435766764 -4.500028812699217
405 -0.94247654043944 -4.910449069534298 -2.2686444861377155
428 -1.5502629932937697 -0.22460349268193963 0.40422480742013195
208 0.5579578244912903 4.1096520341845935 -4.056865798549666
42 -0.5052880110939761 -1.6289451325053936 2.2337416618840273
178 6.069271713144101 0.9069790646093168 -4.667187417951845
100 0.2364148626060398 -3.317947809951039 0.6350866805918638
406 0.2327272349916191 0.6133350805060238 -0.2798797119918074
89 -1.4502069204648818 -4.498931577857979 1.9470099342070548
495 0.3735973751793016 -0.6002973007921483 -0.2489902903688994
19 -6.349610793201681 -0.1763799843108186 3.0020708172354205
221 -2.99053445080793 3.157079885165498 -2.45490129546687
397 -0.1565134115500661 -3.508412844623631 2.6667574525581834
175 0.7459502545107441 0.7745307758861368 -3.0218383946738436
103 -0.6072013960471173 -0.48795526793888366 0.12007438651585094
379 2.143858006613352 3.499942810951762 5.49915031942574
381 -0.04473164082837866 1.8366379158067514 -3.2465100061004524
138 4.057348115166788 1.1952546208233004 -5.836634314174135
87 -1.180261242817333 3.458770832493517 1.497556190050468
308 -3.846788196734112 -0.09423596260343228 -1.024424919985288
433 0.6134698271733271 -4.057888180263723 0.04156026894643116
149 -3.8126709189074255 3.086067517350179 -1.0808070482668686
114 1.95775727448677 -2.0457163846622897 -0.7380266708636173
304 0.11797019423890952 4.611569227205996 -1.1331293606122785
423 2.4430834862981676 -0.13841938803934295 -2.3387712309013517
2 -1.265157617433023 -0.19401734410427432 0.7433198545190998
318 -1.7339335375189957 -0.7232471981785638 4.066093207545279
458 -2.0406495240712896 -0.6756548221889256 2.813379609400145
350 2.442554316633907 0.11427476410870062 3.5760174314336814
130 -3.0452688229044402 -0.5691809689249594 0.548630846728027
282 1.4041450664698694 3.299665721304843 -0.594439945622689
65 -1.299450655689213 0.4926893099150672 2.8517207784312255
185 -3.1793669185974123 0.5238631104302754 5.801675272761977
83 -0.10458586568586566 -1.5080715290013982 0.10035654122599894
240 0.5027624231803837 2.5634401708294248 -0.8978436250136985
245 6.246721980674584 3.749193584633538 -5.7185750693712185
268 -3.584042334972285 3.4667458028454305 -2.763295493442757
85 1.5012441483389578 -2.5023758761453987 7.285009584712636
346 -1.8252217154677535 4.480761938789654 1.815238349720786
112 0.9917366794434069 -0.7741582987663111 -0.40592947170019045
198 5.6405737782491485 4.23509537789223 0.5068332973874512
410 4.050955247724876 9.74858412372761 -0.9502594762264217
119 0.2845853023715014 3.1493076305475007 1.0402390113332156
33 3.1780149862445306 5.154344188850382 3.788766585777973
191 0.46426363415872657 -1.4685658415274043 -2.635189456487106
259 -0.9857069620751984 1.8697827975401018 2.039664192354301
355 7.037345297970546 -1.4534275856493857 8.610581043875376
295 0.6740679377615691 -2.8448067603425766 0.655391685070271
217 -1.5712925715320243 0.08928786481432129 -0.1231838049277061
12 -2.0602825635975384 -0.18257852962829077 -3.8292747129848657
153 7.7317674184519225 -1.4562001149943409 -1.4707056945763939
411 1.1417779253432847 -1.6452126163363285 -4.493754945110919
223 2.739846731161223 -4.595249323029129 -8.606600409077016
203 -2.8777755212520733 -2.3930467022060427 1.9176199224943897
113 0.5951359654575425 7.4019333778271 3.571316398549632
496 -1.4712229149035423 1.7836795003716734 1.2353461652230422
386 0.8969228937118862 -3.3803842701655844 6.19995567475557
487 -5.599339418126143 -1.1702462421672677 -1.9565372516534507
347 0.7734708751053516 -2.365947807998526 -5.011708362432315
146 6.803207834628145 -1.3152426063531173 6.005447531403982
337 -6.282860554690613 -2.1713640401062895 -5.163135793261559
174 1.5167653209293188 -2.5831861874140483 1.6197199135369116
34 -4.3995401970378145 1.7229122668951773 8.959095987966933
500 -0.4271924310262152 4.732794801253755 -7.368849221542468
262 -1.092705029396476 3.6998452648786433 4.201986761138673
40 0.5309444453897275 2.7769655127136574 2.2424399898099834
209 -3.218444857566785 6.311217961632082 7.892682440332956
7 -2.4637336939034005 -5.675367363715442 -3.2148082446462816
227 -0.8078264504155446 -0.4254196438513795 4.127443571202397
107 4.89539597719248 -2.4950515960143975 -1.7467269550673272
258 1.2800433638460376 -0.7116408877225203 -2.3880687325218255
340 4.882333618167734 -2.4863983709660658 0.7431000129967462
88 0.9485019529610104 -4.288182861080704 0.7186578391146216
205 0.8165658487089413 4.376822509696168 3.0580499824688485
104 -3.3398150144442096 -0.9811617352308737 -3.9237549776728105
391 1.8744449053501848 -0.21896923863950343 -0.6884613744155119
364 -0.8138228623322046 1.9981576028455081 3.267498477646678
492 1.1130640307245818 -0.9667430410083618 -0.7118757719384219
63 -3.6198437457822057 4.641212339962416 1.2448315360551132
325 -2.7447916677852344 0.49167974753515903 -0.7313782716747246
132 -5.421717540379463 -2.988099461915425 0.8229190638265245
284 1.3054341988360252 -1.4548179508797383 -3.2163005409093235
124 -2.3193645644861776 -0.07125558944032621 -3.8288296232089554
36 -0.216123549316928 7.545127086743799 -2.144558578156371
354 0.6845026213250737 -0.45999874151287434 -1.3983812206205573
30 2.8657560371821136 -0.860091047336271 -0.08733924802549754
305 5.285225436812744 -4.380232556182085 1.5858171343690546
457 -0.5422433257457308 -3.641546730958821 4.002094943144612
236 -4.766294436659607 -0.4030677352274387 1.3878522740804753
229 -2.443528882914234 -8.94602615384547 0.2724240904232191
450 3.5350234222709056 3.170849579851478 -1.863217730812214
60 2.539772424523812 -2.504035080483411 0.917831554989389
390 3.668259040482285 3.727532115400207 -4.900098100732343
331 -3.5129996187263006 -1.1491108861366186 -0.995423156785927
432 -1.7756404554390286 6.496736347490118 -0.5453360219852585
426 -4.451248533453107 7.362064107158703 -1.5068090388957356
348 -0.7611128871250312 2.868678206000098 -3.395424906429003
473 4.277126525581111 1.6068537663114628 2.957659854521025
18 2.7500684320157323 -3.5888001368477616 1.644674092019672
469 2.285228303843279 -0.9793406305562032 3.559855833859154
115 4.15923346952194 -3.8867110165044796 2.1716984066789786
328 -0.7721258149259386 0.9951992109695434 -0.22799554183066628
156 2.038080672138849 -0.5280035988183004 -6.4358807303841665
365 -1.4448948884640618 7.278431274387666 0.12259139771818083
312 0.4800483230074474 0.6548620255017613 1.6409791723000313
224 -0.5979074080727947 -8.216802250580834 2.9596243884227134
441 -2.063367695743657 -1.4226924558681449 4.490777457418002
14 -5.983100519769802 1.5089377312677603 9.92054606730829
380 -0.2411147147230561 1.9451013153976693 -2.3246227216315307
253 -2.4485901255326974 -7.957978617427965 5.955806167736012
76 -5.826759823537638 -3.325634265644502 -2.3878731887951004
247 -1.9980325134997663 -3.61436489135402 2.861948229687899
456 -2.661633765277836 -1.846099448366076 -2.7131203143776172
491 -0.45859454521342413 1.4668743359252145 1.765213471369517
377 -5.94329033181938 2.871879059610519 -0.33107854936394004
459 6.362155030921369 1.5917730146094378 4.844372702614655
324 1.713401905937799 1.1317752497625964 0.9936644577130951
67 -0.3477082411263771 4.035459078978018 1.1902299927283997
160 -1.402530338558125 0.9227557623594642 4.2499177399995185
194 0.02063753515023424 -1.7473103101083385 2.4517988332241067
402 1.087504194866613 0.537757085498892 -2.572402881103017
356 5.112506782797506 0.3372241122674114 -8.849742899660377
302 2.445559887648586 -0.4745784007309478 -1.461482010407433
286 3.4972102593447874 0.5969327467252795 1.3162302332121312
257 -1.9310872246688213 -0.655772642204772 0.7464350742215397
139 -0.5830918511183594 0.40936447447706964 -4.146615325522595
462 -0.09846931621699019 2.0945063228525878 -1.3527873026253279
21 -2.972688577247648 -1.4944233585754396 -1.4618043701627876
408 -4.0472155766180835 3.9307996111770387 0.07874441205845463
453 1.8607795784198804 -4.323312471566457 -1.9569486697442022
186 1.1749702578321841 1.5334276340574085 0.5137477489032711
385 6.369961546768612 -5.382644459574481 3.2555038763425435
29 -0.8701140997637148 1.989901914911005 -3.2260337927960028
99 1.3989532052561648 3.4838471717987116 4.266775836383115
447 -1.3073331459385984 -7.7091796654624325 -1.9207369793164077
481 -3.9598684490649907 4.445797615656262 -5.085965355326607
454 1.9664681999012963 0.03934941156309263 -3.228133270621225
264 3.51165852762977 3.876596264443653 4.643902769243458
9 0.7548414303706297 5.735216563658061 1.623624204772125
285 4.908518491237292 2.1222528118396933 -0.37320807453194227
497 -4.080099582203092 -1.376860902991726 1.6653736810474227
214 0.7487331882247146 1.0900507419310839 -3.5880763906309094
144 -2.729205227160663 1.2751880034058434 -0.5855281107065019
416 0.6138079324583857 -3.121003383581295 0.7942715012237637
375 -1.674321357644738 0.4336944706128683 -1.3724286250692084
86 1.5805920192490464 -1.26996414694977 4.282621426942048
75 -5.003743969762601 0.7573604709692834 -1.8264060293013291
106 -4.128288831660217 -4.750364866127144 -3.9994357407494
61 -9.625550878962942 1.3845217765245175 4.040846489714577
183 1.2867687446201572 6.680110884424331 -5.47356449507458
255 1.318260662736895 3.4741821992120814 4.363198538510833
396 -2.6431761948512187 -7.821333866271371 -1.8703829379681478
233 -3.5388660749163345 -0.21198746991427198 2.9277372397007304
134 2.0474819155299047 -0.6379144856670342 0.6140940902314046
292 3.0058274897012853 3.249281862581216 2.604752896633558
143 1.3954829498097336 -4.125361394043424 -4.7271321949151845
471 0.16035111286615752 2.7385151540398893 -2.8663290531475796
181 -4.4257173342463085 -2.9253957768308188 0.21705355736970677
290 6.521525938173649 4.340618623038049 -3.4467755593836595
479 -1.0407690393288664 4.775651202306583 -3.4106601558531073
37 2.2958603300608873 -2.9912064841155352 -5.015687277144399
207 0.11292396880604462 0.13492799079393603 -0.2588013402806576
176 4.2324369047321815 -2.1829541206492515 0.10395891845920906
164 -4.268844607193413 1.9036407971209957 -3.0210517957523106
303 -4.11725289299366 -0.12006981769023865 0.46225328845588953
182 -0.2524285939681886 -3.086729808261841 0.48140018274332225
439 -6.150136494641996 -0.5669519419665443 1.1594261625993072
122 0.3379086328896672 1.3954117709845482 0.9075562579062221
249 -2.6978380166813443 2.160788008723256 0.002007444316806723
420 -1.8173692480830492 0.06294906942811124 -4.255510054107226
434 -2.866154066038452 2.2238383419874452 0.13111997292215577
468 1.5628692716563852 -2.7926093485178525 2.367334373162133
349 -1.826458203229995 -0.3708287857328969 2.56306688772714
279 -2.1431431661203617 1.147097118271731 -2.495771480065598
17 -2.9369905441726436 -0.16967218902091277 1.8594680106235248
79 -1.7009299177890227 1.546970870567256 0.9618207133754196
360 0.8184758149620825 -2.3510978172819024 5.314229901857357
47 -2.9434885725844784 6.418423636983176 0.08223404760605864
35 0.8311760128604071 5.100755113508464 2.860658642210523
110 -6.943306954565319 -0.08248867121062234 2.0153546963772824
52 0.1354467431009593 -1.882927441931565 -3.671771269613669
41 9.175535703931269 0.3383736793364676 -0.7623577628229413
133 -0.9231960800756264 4.006803178951511 0.4718495645726258
148 2.49387918269832 4.532128741403741 -0.9773795000812503
277 -5.383796145787832 1.5344674079548328 -0.5780148362238844
142 -3.8905340459600795 0.43731099296544534 0.7774947326597432
445 -1.0717849579062648 5.73545758122519 -6.005336547768105
301 -1.450518561067625 1.137534142882339 -2.1800640886746954
389 -2.22383896963885 -1.5819893142319852 4.474517174703426
376 -4.046633076879645 -3.984693040923625 -0.10270882915953651
431 -5.8400501624622825 1.133341880779545 -1.3134589565297285
58 2.574971814842227 3.1063061002841157 -1.6600954951795928
212 -6.326013051066018 1.8490908988756325 -0.7168544605115993
463 -2.3490877910655876 3.5184136992266106 -0.34270410592319983
118 -3.969406636944371 5.826942284180285 -0.7450352802073593
196 0.47100784690992786 1.68425861258238 3.4212790922153427
200 2.051335944425033 -5.050511176611608 7.908745972394521
393 5.108472385076753 0.6306835658331339 -3.8247134618574257
383 0.16256799487718865 0.07803134536776622 -0.9475261535277134
243 -0.5306549127719519 -5.066965299578761 -0.49370854822326016
20 0.15016620256408186 4.013768489049985 0.07364411059929056
246 -5.099741454211073 -0.43147003511553605 0.30345558220278246
414 -1.3418744279846935 -1.9473248176643427 -2.8397331537934742
199 2.1691880101954375 -4.96733633398414 -0.7576749112023065
167 1.8118400500575549 -0.3912392582280798 4.356341051747274
330 2.523140511608878 -4.125884835709692 2.394970661281809
155 2.790072838715635 -3.5274655625882527 5.560273619748054
403 0.24100489279540835 8.249563843830577 2.720114287988784
288 -7.759352783980255 -2.781969273839648 2.2697435163388007
213 -0.5956477752571182 -4.55680801862846 1.8033481386686327
39 0.04336175454770364 -3.9148925297370423 0.9624268114386217
129 5.652147853249448 2.6159783176250406 -1.1107089471057774
357 -1.2324442569548053 0.826901241974702 2.632991493132245
201 2.5895308151462304 0.01875225338221996 -2.7885165734205875
400 -2.9519702573057653 1.8125470972492543 3.6435584611803753
170 -1.8591435634611655 5.7884576573965285 -2.4266128646537313
401 0.661821386092666 -2.4617580921267677 -4.784923875570455
202 -0.21048339262753837 4.130560470704111 1.0879776142797917
171 -2.9091989216652037 -6.2914086948736285 -6.123377662954315
25 1.1087517707505743 -0.31224953617996043 -1.2198091392508144
430 0.5072029765869986 -3.9549210160504598 -1.7200957215759602
101 -5.769143171063206 2.0295564619479003 -0.9758146671314533
359 2.938353546391595 0.5841742306678412 4.149788828699873
150 1.1051601513853333 -0.4299389247226266 -0.41671909794450496
8 -3.087195871952768 1.4513655137650445 -4.573315379585635
169 0.6397377057321982 -0.7760898766011435 -6.388227737835436
490 3.122661024919245 0.6731884063404706 -1.2164324028064706
95 0.3059030345733393 -0.43908718937170116 0.8371440023151017
57 -6.806154996181124 0.9689453840240434 0.9630290582863503
326 -0.44685163506053854 0.9361715468839262 -2.0129652161793095
483 -3.0488943407974434 -1.5431030124623657 3.3236248153027863
373 1.2524299949843007 -4.9131730771693665 -4.036632546274297
421 -0.13611798817808954 4.765446090585906 2.1173652236452747
370 3.4349853945752864 -4.774283520544931 -5.609965233985758
419 0.4940232970614024 -2.097086252016576 0.23858837537124777
55 4.447862893279593 2.2177759545840705 4.66855629837822
297 -4.442454151340287 -2.828714662357681 -2.463987564631155
276 0.1438677262991466 -1.852651807693849 -2.685015684022321
195 -3.560785153375589 -6.285385027607251 -3.0999356508487734
313 -3.6978605945961758 -1.7391543280903816 -4.613182681744003
32 -1.9240299834941674 -4.602897344022651 2.7045743870623355
478 -0.5822093104160163 -5.210180331199829 1.5077121854475837
261 -2.2775004198425246 -4.83259526575849 0.18976584390898915
197 -4.244292254849828 0.6379751679678326 -2.171232593837922
271 -2.8490359521917914 -1.1201140821257036 0.8676729814315013
394 1.0914866583798015 0.8941842433943936 3.0399949350776474
102 -5.170240354518397 0.9129109825766019 4.45815076691854
477 0.5192133190021312 1.3163833988920586 2.3312048116692217
334 1.856663807793793 2.0937348393825497 -0.4051133740449431
443 1.8322644019863994 -5.910166147972464 -2.8234237603409764
157 -0.8808179413885286 -2.328633299069812 -1.4108319870002075
189 -2.416427941288157 0.8961866968061639 -1.9647351041762078
163 4.433198243307477 1.5785904455379924 -2.20178658163215
440 0.9076201472475585 2.314637332019374 -5.730087926848676
159 0.5264855401613315 -1.914654491155878 0.6522557649113517
409 3.7291588205736494 0.3515932341938246 0.6839166646453122
294 -2.6177245585246283 -5.281177865015444 1.6617816754851278
316 4.0111334192932375 3.969282575233824 2.5323128324664577
235 -2.539777603178028 0.6974130758892743 4.091921569324758
336 -1.9478526186649705 3.365651094392229 -1.887096246284842
444 6.179168572285804 -3.8317898514069415 -3.7455564877559273
442 -0.5773318817524971 0.3041057472135887 1.3017595991061943
425 -2.702726134775225 2.0317839512262763 -5.737886071727559
204 3.7833246669428013 -1.314433768505976 0.9007996204941476
476 -7.276186095191084 2.4976496745516825 -0.5310897108578722
343 6.443784975177728 0.14869306768535065 -0.7973081855982564
239 2.9237063138420845 0.9754230525256823 -5.143676351335354
188 0.4848869670624445 -1.393946446415581 -5.929908195839483
422 -4.982145144142689 -0.6725056600270495 -1.8795749658611616
489 12.974594770698138 1.4009827563827042 0.13089816965448622
26 -1.5896881891951231 1.6552606554506972 0.7069182963560575
162 -3.1188837983412037 3.1772093746098853 -4.440163514846083
352 -2.27874385040988 -2.8777309468405945 6.616060690987814
465 0.34115012024651453 2.8969102778750098 -2.4253984881616315
451 -0.48612418675542146 -0.047335640016529075 3.6073014722455516
10 2.9749349576064623 4.779401026194076 1.0016040546323173
166 -3.317018964395938 2.6016850952989556 0.10614996103589598
399 0.5725786977931666 0.7614684368337639 -1.5023686093086073
123 -5.48801075195599 -1.325676482579468 0.8330425220175929
152 1.9347645846409185 1.7174886041714759 -0.9951230979577849
358 2.651890121332577 -0.013796689367000892 3.0150090747481553
192 -2.5096997839200244 -0.1502611839446522 0.2707952362965121
467 0.8702095790402603 -0.3643736185414239 2.3306240457351293
131 -2.1165714320298483 -3.4879077431989565 5.357473590763971
353 -7.479895750293409 1.6604522732837987 3.9453338196681664
311 -2.7250291312618495 3.3675610732676224 0.39269023332292496
244 -1.2912467315055387 2.2905209513298823 -1.1205693671944976
296 4.393786070806601 1.1460951489327642 -1.3701615342702933
345 -6.485198167151979 0.9750575725790471 2.040512915637454
322 -1.5197349796528827 -2.511446794173176 2.5650427652169134
242 -0.4972273607984448 -4.613413451776462 -1.5532993871612137
256 -4.528283722191424 -0.45198206449239403 4.068724431235547
56 2.4674893588628684 3.371900917071873 2.8871301261360856
371 -4.933857698567849 1.3579571318153967 -1.0489215115972208
54 -2.885600872391105 2.266901243496926 -1.7932807582000696
273 -5.735151175734358 4.264347282287403 2.225451877311685
460 -1.9042299852370241 -2.232707309278675 -2.0467236712035186
108 4.032791959317803 1.9717509669004551 0.31073971668970685
234 -1.2611212336615087 1.018740050231906 4.837991341291659
46 0.608645367156152 0.37775770240608963 -1.1681796775128126
388 1.3097439246368066 -0.7719149374972285 -0.22824757426301065
404 3.987797420063616 -3.2647380936056347 0.7627526737430095
332 0.13533228418647902 -1.0834906695980904 -1.4835870897167354
22 2.0340473490737683 1.1987398055436382 -2.4727958964865375
172 2.620010529546425 1.0244526404095875 -5.221623684168042
299 -6.834325566467617 -1.8310325167217092 9.003695294526963
228 3.41638562024062 2.3645454448625722 2.274630889439908
136 0.27845142288610925 2.267683323184081 -4.388446188809211
216 0.2457954985017127 0.9273214623438376 -2.0963160030745693
437 -2.383304297875764 -0.42653150174780224 -4.559581837237276
368 -5.699614643252815 -6.368122424934064 1.6019778444671882
16 -1.0862758583187473 1.2103371473522055 1.5935095320055093
494 1.872317757120641 -1.671317890689327 -2.517776567065133
219 3.0525630781543542 -6.524803928182495 -1.8151531066395357
193 1.9890887998771438 -1.5234365168498485 1.1758932348853208
372 1.9000819806910807 2.2465286922865673 0.7314825939275561
339 3.587454307942744 -3.473904676855202 -7.030457182787773
438 0.5579455368181192 3.5421583373169 3.9366249383632534
488 -1.0483835340690268 -2.3486301886273107 -0.2618194599366772
84 -0.9748737987940145 -6.782688626512345 0.6095036274670943
415 4.56945668578317 5.477224322134064 1.5423226490926438
252 -0.526405494852978 0.14111625573839812 -1.8460190843220474
125 -4.130488566318926 -3.303877469422692 -0.34785005577922823
407 6.21127398504657 3.4548252567137974 -0.9400547731417985
206 2.447298631921026 -3.9296275071307045 -1.6601247687080676
230 0.9424464847619577 -2.4287267719937473 -4.936980906447913
382 1.179491380404455 4.725282195158985 -0.3613311196196626
11 1.440326529507547 -4.323948100445367 2.1346751608426064
137 -2.081558163152846 -1.0210361013595803 1.1972642658413928
44 0.3329221609731733 2.1478594367908235 -1.0275000577119509
127 1.0166414301460875 3.1389940879807376 -3.7444274553834873
327 -2.315387729244558 -0.35919964013805056 0.5424513577779729
474 4.945854941752094 7.121822412837346 -5.306842273324728
335 1.774990309703949 5.446563073426406 0.6446387584195973
68 2.6329578113739616 -3.8880567094340126 -0.24918521360781257
306 6.866823323612278 3.555237674242427 8.368883170084791
59 -1.629529405518077 1.5625727913132825 -2.472407148625094
49 -2.7086803861289876 -2.2507871837083853 -0.9066329152368721
362 -3.676868470611704 2.098341698299502 1.9669581669506433
464 2.632563661611129 -2.5431113115136097 -3.564789902085056
392 2.1063723473089406 3.2117525789183548 -2.372288969532143
121 1.6369049694104358 -5.281103703005901 4.483322243534454
28 -1.4148968872567413 2.4748548485023445 3.4411011374331744
109 1.9235248969191097 -1.3053403142237145 3.987876870260252
323 -6.885865685695836 0.5709352862543623 0.2184664660675107
267 0.41122175108778053 3.7185899942534566 -6.100169958142392
77 -1.929805533602376 -1.1138402699890901 -1.3587736838269855
48 0.8169245636788087 0.5057918147230858 1.3879222714327946
179 1.4599900787393942 -0.7014825495364382 -2.920678291745736
147 -3.086635623182358 4.269148157736543 1.284245300136085
412 3.8229979000664303 -0.27253618280523983 0.1307272143507819
250 5.112549282859778 1.0891099259156345 -3.7181320297698677
395 3.9139185411582615 2.0979471612348006 -0.4620653815121541
317 -2.1693204163262556 0.6949711647667298 2.10351609369813
452 -0.5408636192683582 4.012722154268393 4.010881392972513
342 3.494171122465693 -0.5376568219349599 -4.812244859678473
90 -0.03832276238694329 -0.03229216422911035 -9.286346071613849
141 2.6377405136835272 -0.10546422556930105 -4.178547040657371
62 10.61081260167524 2.6634378298336423 -0.8027918508850089
446 2.3608101424104766 6.090740200523491 0.8059460930957669
215 -1.6550414099694142 0.39576491733996 -2.0182028686848286
82 -0.16325017675757642 -1.0811826582416422 -1.2109099289197416
241 -0.25491260008790434 2.872559734087374 -0.36238977503110203
333 0.6842666740831614 1.5673989829581314 -0.16794168585103225
499 -2.5898515623902534 1.3918227967286534 -1.0161525545505925
270 1.6943097495732977 5.080862856534816 2.8026996999036093
165 4.645224800971086 1.0936692758898483 2.2215903900853196
98 -3.3414136088990665 -3.711574112408013 -2.3547205308945522
427 -0.374791916611676 -0.7731906675133716 0.606585573116514
448 -3.2525910160472082 -0.14954888500377378 3.608634331345597
378 3.7870526039939274 -2.4735455731383555 -2.15499137434388
275 1.2140181622702721 -3.366681462203115 2.3723146727550803
344 -1.1449445776651928 1.1692409684709308 5.081385431394457
417 0.5431956641479239 -2.2372342339381643 2.423010798543353
91 -2.5176035139848634 -0.5614677154434679 2.069535494321077
222 -0.46884293304047264 1.537491131826234 3.311243004699051
266 0.6766233163700384 -5.982113216390868 0.005278182864590773
319 -2.5753123536510576 0.8321715918591964 5.442716367890483
461 0.5045474566739955 1.6894940347050202 -4.246248989548473
238 -0.5917907221662516 -7.967322068402248 2.5446806957506674
50 0.6415331839013609 -2.4604649179494134 -3.801433498758646
71 2.61051618167071 -1.3414177113647843 -0.8192427312621146
298 7.342376101543748 -5.502530129784093 0.026322864588888908
251 -4.881105754420813 -2.155741981620075 1.3370222256432365
289 4.76627024578712 2.1067572629009583 9.386877446958687
366 -1.3991278318909084 5.181772205477627 -4.072371112708675
74 0.9108087912901749 0.9076888647459076 2.025628124285059
210 -1.663179431463903 -2.7062005474888466 -0.22226959391465959
418 0.8605725006605374 3.979968468099258 2.9321835000371506
161 -3.363967099066019 -5.6640157864373295 6.004630316544421
480 4.952279531666243 1.0082358662847657 0.6532083122044549
51 2.707136126214811 -2.7976965661531796 -0.010231805286635835
158 0.7896896130812711 -2.035306031028784 1.2707809164568713
105 -1.1219953536756493 3.1970003470327195 1.8719465858012896
280 -1.6535838353021584 -0.9519557693254398 -2.10108515327835
23 -1.4063449150779253 0.9698535284967343 5.245652954744176
367 -4.597582261300404 1.9487012575805995 0.15739868037954519
278 -3.22470725914023 1.249211160629071 2.7228802096196105
1 -0.34276148955814917 1.3563712342657026 -2.56670708646814
254 6.226666641546359 1.7992801021526035 1.5828687287453007
38 -5.19524633160009 -7.3425107102015135 -5.777239159006212
96 -0.577684242102881 -0.2706076538315395 1.1308982209263294
398 1.6411934256284761 3.10746089120347 -4.071166657649012
413 -4.181602461386856 0.6654327594684302 6.9347672817962485
180 -2.4545203395351782 3.071093087565907 2.5449625344021722
66 2.176208701351544 4.260776402964398 -0.4069303313091463
177 -2.8230321185941163 9.09860234795356 -4.037393285053873
3 2.1870873572816514 0.5257244048971759 0.10860961790293401
80 8.3818073004596 1.6460245092828272 -4.987989768662587
315 3.723121809161435 1.8435408434988951 0.2768580500560739
81 0.921591218705967 -3.530048413806343 -0.9914969701603885
168 4.131353484231992 -1.8030320818866807 0.9945423480664916
173 -0.7827569913637618 -4.715858041861392 2.5544674148469277
341 0.11003941471197705 -1.5203584400790984 -3.5146688295297737
291 -4.559746367513348 -4.13623385156815 -7.77178929541941
321 1.3385078126127894 -1.0039185024906219 1.9354786730591045
293 4.605847684857877 -2.0082215369555945 1.162573977123245
154 -0.9095752359356564 -0.49378651609356994 -6.506454299167001
116 -0.8533164051395372 -7.833522058081646 -2.4565648002818614
120 0.3062456492192382 -1.238712279084809 -1.5972102814442537
4 3.884507691071214 -1.9104746737311213 1.0434358824070826
287 2.4534561226624567 -4.274386856505891 3.805947664083339
24 4.225708459166158 1.8763600140776946 3.647835467930327
237 -5.5830986607063116 1.500672210259875 -0.6210628449784569
369 3.140353394829987 -2.5238322399420414 -5.338161159260555
211 -2.6472217963723526 -0.9299536471645207 -0.8813972935298217
449 -3.517857564073516 0.10905101900339723 -2.6824383215809906
145 0.9747239694147263 -1.9025566536329463 -2.17840387195316
73 2.3451584962466034 -7.788889822624087 -0.23484491670879643
363 3.84216819770679 2.079033151320416 4.973132835203471
27 3.4065809581685524 3.406118429457324 0.26910371773324815
283 -2.8966891933744314 1.995567632645352 -0.32418754009580386
184 3.1173479196918636 -1.3340285029748193 -0.35535480620333326
338 2.7657643942201573 1.2098985757387883 0.792840096003324
435 -1.7653981497364524 -1.1522212001785195 3.0505046596632672
307 0.6250678988854078 5.145952386348286 1.2618788505773106
5 2.2281593362782055 -6.410462989963766 -0.057468357214380615
6 -1.2009363024925146 -1.3759612988628034 -0.04669692085726766
111 1.6137813591896932 0.02848450907819947 0.3206253344840412
231 -1.3368590620342815 1.2591200561028937 1.5429570565470418
310 -1.1640056760272828 -2.2168733399678673 -0.5325004821893619
351 -0.14280824951447663 1.8913367303774706 -1.2832087869418938
498 0.7397131915584289 -1.1483796954846968 5.3550896805912505
485 -1.7232083327432337 1.2873376347146028 -1.729407794915963
97 -1.9553193592750344 -1.5807553746634406 2.843179237828788
265 -5.5165546402798284 -1.9899311326240843 0.4441136977480998
309 0.3553523415688131 3.424250703265251 1.808353786102502
128 -11.358259235503292 -1.6252347735761399 -0.6031340549819126
314 2.531801917992361 -1.8798557212491525 -1.4775963310252556
470 -2.2832891254801146 3.7427192855353115 -5.340210343263006
361 2.1786157954823198 -4.470016375882627 4.601680415369413
43 -5.033020495714762 0.7058614705776377 -3.0149134665258814
263 1.649658312593524 -5.2600589170187195 3.1752847350856386
92 -1.1977004216321585 -1.194655436757762 0.5441020982947827
429 -0.5765212644916139 -4.221918214197147 -1.8892964528353422
466 2.4527472857246364 1.1906870358537962 0.33009264637523517
72 2.2542950171888103 -5.5756473561540085 -1.6549158265363508
486 3.466442192882283 5.984008024232654 -1.5082322584869599
232 1.625458275286337 4.495559922720478 4.669784263306914
482 -1.4335531605188814 6.983844761824186 -4.730673555767026
117 -2.3209656554173392 -2.17126028548368 7.788874358123999
45 2.8261097536188347 0.04482123715552163 -3.7090226100694887
475 3.0862489404964375 -3.65964789000044 -5.573277609361217
329 5.929020179510329 -2.702497587669777 0.888523217172767
374 1.7910164905890489 -0.9371401703890228 3.1263552816123052
135 9.545355171205532 -4.148627379314161 -4.355740131850703
78 2.9644389431708293 0.9257934853171341 -1.5068298648649376
15 3.22772114948572 -4.165461400872597 -0.9595178322872675
436 -0.10211298817997846 -1.5297644193985263 -0.07669926628623172
225 -0.6284184723349854 -0.1694587738729386 -2.288863329483835
300 1.7144944249356078 -0.6745798820383018 0.918168153763857
387 2.8850068188552225 0.6968232373931222 -2.564534406990854
455 -1.693709188004067 -1.3563028317983878 10.633291592695667
281 -1.6474825915717326 2.0432277353803445 -1.0841626652961012
248 -1.179720707272451 -0.9146888814826326 3.3129144798354173
272 -4.39525550953705 0.14436041405768318 2.72921992744214
260 -1.6256941982440651 1.57569208437088 3.984882471349275
226 -2.118179518442734 1.6076206358522567 -3.2876912599762687
274 4.1824555304680775 0.674732592904766 -2.9219358920552096
220 -3.542906697095224 1.1804861624819154 4.642133631714459
218 -3.0077678966794106 -1.7854804620700984 3.020612643149607
472 1.6939461453701146 -0.13353480812003915 -3.7616803969877113
126 3.41726536726537 1.7357195241791168 2.7886528977042233
493 -1.8789312600369954 1.5406592578934264 -3.6670672828178703
384 5.338502246039182 1.7054707862899836 -1.708408432010616
140 -0.8693882927767682 -3.0780810564905576 -1.001091800851381
484 -1.2310804421899455 -1.9129468800196006 2.4575036294662893
64 4.8089447011048705 -0.8073548016454317 5.951373984961417
151 -0.581891875234478 -4.282559590169943 -3.3894818013954873
13 2.8911930984591137 0.5587177756777428 -1.190875932922956
