LAMMPS data file via write_data, version 22 Jul 2025, timestep = 400001, units = metal

500 atoms
1 atom types

-0.4614096408476076 18.348562990847647 xlo xhi
-0.4614096408476076 18.348562990847647 ylo yhi
-0.4614096408476076 18.348562990847647 zlo zhi

Masses

1 63.546

Atoms # atomic/kk

234 1 1.9313690584665717 2.551876831997635 1.5892022825605088 1 -1 0
319 1 2.812428472887041 -0.16394609335287463 1.5194939248432942 -2 0 2
151 1 -0.07217738349894498 0.9139495471249108 1.5614860433080895 1 1 3
56 1 2.330769328571228 1.2093137436924695 3.6332567012452275 1 1 0
40 1 3.248961719922247 4.0851320853627655 3.5121933414156103 0 1 0
438 1 0.23690510158276057 3.1323803809719006 -0.051192350297850686 1 2 0
96 1 0.6993992925507633 3.932967919755698 3.45184676878785 1 -1 0
382 1 6.111491553668003 2.2584617349521423 -0.41292805216023254 1 1 0
305 1 4.601142470746507 2.1275843021016847 2.0237611513800866 -1 -1 0
95 1 6.57816064468987 1.6839553109626109 3.3362503450025165 0 1 2
259 1 4.3434979582929945 -0.3153499991282167 3.787387108285119 1 2 2
123 1 8.82339468005801 2.4598702092398095 2.9173459915013926 -1 0 0
421 1 7.850295049817838 2.937220930093038 4.942007112742888 0 1 1
107 1 6.013160368636911 0.27574484865001914 1.142066583237237 2 0 0
111 1 9.505855708844862 -0.2806023585731695 2.8075826797801864 1 -1 2
113 1 8.515677831961293 2.784548719385156 -0.4150540343073317 -1 0 1
187 1 10.453435412864593 1.8960419164372957 1.1512236739559856 -1 0 -1
29 1 11.311311363320119 0.8127720324600212 3.686549988483026 -2 1 2
392 1 11.711246163709697 0.004941094036328808 1.2076669156641935 1 2 -1
137 1 9.547434784309692 4.263300896953367 1.4917049810715723 0 1 1
144 1 12.154429921421174 3.321354449688103 1.2863112920652373 0 1 2
441 1 13.824040424596616 1.4299247685889176 1.2187910585792123 1 0 2
224 1 15.036077320481535 18.10346655881915 1.757129024613117 0 -1 1
355 1 17.612635914907045 3.0833699014864853 2.1513560067897615 -1 2 1
249 1 16.131740742837742 1.3333934695893193 2.0718339525580123 1 2 0
82 1 14.467175700571547 2.9216516509331365 3.2703322035008164 -1 1 -2
357 1 15.098287036017688 3.569111568612218 0.9647983320615633 -1 0 2
325 1 13.01980926174648 -0.2916642278904886 17.501038613198148 1 0 0
276 1 16.5753752009162 3.418723431757473 4.671687549428602 -1 3 1
364 1 18.3101951456713 1.5052527784423315 4.024963821394194 0 0 0
135 1 0.2640969583004037 5.486355234581983 1.6535928312264632 -1 0 0
97 1 2.3719601429026635 5.985226355000435 2.738681914334747 1 2 1
367 1 2.474813049190694 5.020625054450233 0.69561459207102 2 1 2
34 1 4.229670367477081 6.847149686361928 0.03233800785514583 -1 1 2
254 1 4.875289889552219 4.670923129099662 1.4596361538522526 2 -1 1
214 1 1.3085426393491653 7.383958513702951 0.7237220536142708 0 0 -1
232 1 3.702682799163731 8.28422861257512 1.8735094120495528 -1 0 1
390 1 -0.20740654521893231 9.224807351588769 2.0451796779558555 2 1 1
55 1 7.187743948363966 3.572740669701229 1.2299898181835183 0 -1 0
450 1 5.715828474547452 4.39259051439054 3.6123580613813084 0 -1 1
400 1 4.33177500297717 6.690103214149665 4.018537493741179 -2 -1 0
157 1 7.899639909682028 6.156570288465062 1.829902214378452 0 -1 2
424 1 8.674039335513257 5.5350109443369115 -0.39027265643911235 0 1 0
372 1 5.643332662541808 6.995321257722944 1.8167145839950527 -2 0 1
115 1 6.940025537448475 7.876107093195797 -0.07352163972658615 1 -1 0
184 1 6.792475838408921 7.297663429632514 4.043898230947973 1 -1 1
343 1 13.366678194504665 5.1035414393502 0.031012858192885396 0 -1 1
257 1 11.251296829449089 6.000432082350435 0.9868422290815464 -1 -1 0
67 1 13.052564580106305 7.748431359983234 0.6444067568250671 1 0 0
25 1 9.578249450442591 7.833692705764921 0.09835563397174718 0 0 0
291 1 10.144229878714775 6.766763766560436 2.9043693332813887 -1 0 0
358 1 11.109287359875786 8.478368286951335 1.6831931165623166 -1 1 -1
26 1 10.26257869229447 4.552740822422749 3.680029523234825 -1 0 -1
350 1 13.67873668245859 5.403709466358106 2.35157178458948 -1 -1 1
181 1 9.683501224697824 8.66514189090211 4.36512434537264 -1 0 -2
145 1 12.640978706087513 7.399944799509659 3.339292502567724 0 0 0
256 1 14.994775233680938 7.1954637188150565 1.8704853674801225 0 -2 2
155 1 17.261915428364397 7.394097202874216 1.2645646607281786 -2 1 0
202 1 13.177937573008224 9.703041179804455 2.085317884840576 0 -1 -2
339 1 17.13737260027782 5.1459640149352746 0.3364909197501605 -1 0 0
414 1 16.390448352537142 5.316591042332286 2.7977158317977238 -1 -1 2
219 1 16.289939200091624 8.771330581855572 3.0649899635996545 0 -3 1
76 1 -0.1875516190370496 13.133139014464655 3.4731928211569945 0 1 1
464 1 3.4899251537469156 10.346262116055918 2.654611020096834 0 1 2
498 1 3.7062992583221055 12.543645366461261 1.2788416255136015 1 -2 2
207 1 0.5620363343429047 11.835575281654041 1.496540457851076 -1 -2 0
347 1 1.9097679519638917 9.911031421298485 0.9662960566028761 -2 -1 3
195 1 1.3063946312622121 10.443471602437656 3.5502982054546495 -1 0 0
356 1 16.84041936130069 10.982841341750815 3.4108443650553806 1 -1 2
158 1 2.2741232664428153 12.764381185324378 3.2970883967321525 -2 -2 0
311 1 6.161729634927524 11.562921390444647 1.072340995813869 3 -2 0
52 1 5.569947983409534 11.326287743983801 4.309885392765987 0 1 1
166 1 8.362182585575672 11.159556940402643 1.07105297146019 -1 0 1
287 1 6.563597520288184 11.290999462868434 17.57637180369257 0 0 -1
173 1 5.190242557444434 9.118146167634324 18.12586473505502 1 -1 0
316 1 6.367812762040106 9.379312971429183 2.2936213449169673 1 0 0
472 1 4.915405217368179 8.961271238407098 4.374215170359708 0 2 1
89 1 10.397682235269956 10.622786675744889 2.507101027237715 -2 3 0
240 1 10.115837423687884 12.831287215976202 0.9074172719255205 -2 -3 0
452 1 12.647105556256413 11.480897287001053 0.5477909828780714 1 1 0
183 1 8.731702274479268 8.806025774198599 2.144668707799813 0 2 1
266 1 10.521979711712293 10.465715793080046 0.09287448843030215 1 -1 2
477 1 13.473344154851667 13.268012064361915 16.79318211841506 1 -2 0
314 1 11.841514516798291 9.707796741430323 3.9709220140220487 0 1 0
149 1 11.564971465653683 12.29038580791978 3.8281967701340536 -1 -1 0
175 1 17.168705003433537 10.869146204103203 0.8936292679404064 -1 1 1
427 1 13.451714495687677 13.53429234936932 1.0108133792993779 -1 -1 2
66 1 15.266995177285398 13.634783425496028 2.66876573473936 1 -1 1
129 1 17.371571227376926 11.91768839886514 17.15031094597702 0 0 0
328 1 15.52182073034447 12.26094324180715 -0.06402499643052967 0 1 0
487 1 15.589201411112208 9.21690446646265 0.4146103893170674 1 -3 3
133 1 14.974255125543523 11.244389512413392 1.8668614824142042 -1 1 -2
18 1 0.7478300670801068 17.649179205801637 2.427255796361539 1 -1 -1
463 1 1.709969791766738 14.004380404850153 1.2227053529697924 1 0 -1
300 1 18.30966333161939 15.95776322855709 0.875892694936314 0 0 -2
468 1 2.8547991006635356 14.55918531813944 17.993661771583163 -1 0 -1
75 1 4.176917644434386 15.03260811670927 1.51146404370043 -1 1 0
68 1 2.1254434359973238 16.351975381850174 0.8715373718116237 1 -4 -1
103 1 2.7391542881705355 16.501338572596723 3.6521922942054137 -1 -1 0
188 1 5.241599398042742 13.493187724761983 0.02851990515896158 -1 0 -1
189 1 4.615256055589086 17.341297148735762 1.7850852485300117 0 1 0
10 1 7.025224582293706 17.907353005522673 3.1172080319635698 -1 -2 2
147 1 6.398438314481799 16.833104579037744 0.32286724134050854 -1 -1 1
109 1 7.194917781453144 15.638126332966005 2.6218641850704327 0 -1 1
379 1 5.923565418698409 13.487586705239414 3.6121116964645217 0 -1 1
457 1 11.41347923827224 16.97038028877924 2.6848257340873807 1 -1 2
342 1 9.253599993656149 14.855468023072122 0.7788891554777727 -1 -1 1
58 1 11.5531064152425 14.181503235385977 17.958901156575873 0 -1 1
208 1 7.560082938548154 13.519164301586672 1.438382984564792 2 -1 0
383 1 11.602107963827507 14.423361037574166 2.243536469100467 -1 0 1
326 1 9.52628126305719 15.724805338587581 2.940850575573021 0 -2 0
178 1 8.493381240690468 17.26306574804768 1.0620561920856664 0 1 1
261 1 10.66301352464042 16.765395262305653 0.2432837767790793 0 0 1
495 1 13.086284755617555 16.518682659934825 0.8041853283647471 2 1 1
20 1 9.48097920748764 13.245397499125227 3.2263573215219385 -1 -1 1
230 1 17.14041134329512 -0.23274715732383028 0.36380802258267003 0 0 0
391 1 17.297599047230634 17.98652026595486 2.9653748299795577 0 1 2
193 1 16.098730979035018 15.142076353546248 4.666436854474735 0 -1 0
85 1 13.873218638317917 15.805217466545615 2.927620553877496 1 1 1
60 1 17.830322206864793 13.557040719068938 0.8608607191418798 -2 1 0
98 1 14.648123672100256 14.853765713874155 18.293779422803848 -1 0 1
74 1 15.369282749913593 17.398640529986146 4.4762410808862 -1 -1 1
402 1 17.389804204094077 15.188670077208446 2.8159470716592447 -1 0 1
403 1 15.59624544015165 15.919925713625146 1.4283719006482254 0 -3 0
384 1 0.9304015525896103 0.1649021530874074 7.379991865397733 2 0 1
138 1 2.5962728049115156 0.6786805862105558 9.178094475252964 -1 0 0
13 1 1.3895647274633238 2.5280876344850753 8.08285681515719 -1 -1 1
127 1 3.6080305111336504 2.876738324714644 7.267842281907654 1 -1 -1
375 1 2.043284496610938 3.387495648283278 5.338621886228331 0 1 2
8 1 -0.09380140512777196 2.7168074832975138 6.193447594030729 -1 0 -1
459 1 2.566007787480243 0.8761424831807301 5.957490382551834 1 0 -1
46 1 4.645657292060548 0.21580819522307415 7.572219434244532 0 -1 0
198 1 4.403770038984429 2.256266570259837 4.715982100454093 0 0 0
432 1 4.785166606143212 2.054023471640622 9.211535610194202 2 1 -1
409 1 7.109763731066642 0.6001316937746415 7.869370258944688 1 -2 0
423 1 6.15386609810339 2.699179211650913 6.336099510716694 0 -1 -2
250 1 5.9745049214553605 0.15748564013066146 5.603353362247882 0 1 0
313 1 8.352318689268984 0.5016825292541909 5.055664966283618 0 2 0
36 1 8.425614534296178 3.18842815914471 7.405787424938153 0 -1 2
128 1 12.32601851682798 1.173164908422028 6.998546917239908 1 1 0
37 1 10.38034613932425 3.4574392004196985 8.465250549091643 0 -1 0
312 1 11.655650515317966 1.7113461822385876 9.095446822854898 0 -1 -1
100 1 9.722938407990684 0.12315199428969026 6.919850771089583 -1 1 1
419 1 10.17782883385871 2.074400343564674 5.23785216670362 1 0 1
81 1 12.03854998346977 3.748920418064883 6.526431043218669 -2 1 -1
381 1 12.05488737016011 3.0608946567203756 3.7747167627959377 -1 1 -1
273 1 14.349049731419992 2.657588029404021 5.748860588540748 -2 0 0
368 1 15.768760877055877 0.11431464672934921 8.426470831159836 1 -1 0
286 1 17.7255121800749 2.6410122624805195 8.848439391840335 -1 -1 -2
185 1 18.238731691339787 4.938097253159076 7.681824157891111 1 -1 0
385 1 16.132094245407337 2.488354377047156 7.084625889936555 -1 0 0
134 1 16.415145527998277 5.440834619407139 5.690519178233849 -2 0 0
448 1 14.13690512950723 4.656026917158373 4.45771661746224 1 0 0
154 1 13.90171682931332 0.6948993931382677 3.440253248671198 -1 1 -2
411 1 15.927162499841602 1.2378536901978916 4.397151083720655 1 0 0
167 1 17.398241944477554 0.5477777480993895 6.565087019745124 -1 0 -2
110 1 1.672673145724283 5.044898770999987 7.7454599150318035 1 -1 1
28 1 3.498016334201281 6.3767091713445625 7.239858380095534 0 0 0
99 1 0.5541132339062318 7.433013001727401 6.290154054303441 0 0 -1
410 1 2.6711480849920273 8.081192542007724 8.965635971451162 1 0 0
51 1 -0.03451380400404741 7.028867110708238 3.508215628425293 -2 1 0
190 1 2.419570019518023 5.693893562373514 5.23534654892695 -1 1 0
447 1 2.3330299328379205 8.2104109919988 3.9831090616523688 1 -1 1
425 1 -0.05271917429117329 5.411130728836542 5.336752872474834 0 1 -2
489 1 3.13156252009458 8.350762734693408 6.666460125684725 -1 1 0
32 1 6.144546205270215 3.8836453159636743 8.899340205018875 -1 -1 -1
397 1 8.397672633295876 5.640845209156551 4.50189057302021 0 0 1
371 1 8.726479419613614 5.579717891207356 8.490808245358192 -1 0 -1
374 1 6.348929116564122 6.434271493091383 8.486499430339164 1 0 -2
47 1 6.5958433944388615 4.820799367397792 6.450666763054224 0 0 -1
242 1 4.476758011180427 4.457734877696538 5.756131554276293 0 0 -2
22 1 7.687781228802754 7.294788077479544 6.374680175099261 0 1 0
221 1 5.407553672335555 7.051757403005783 6.284463476434536 0 0 -1
213 1 9.83180901611154 4.448112608266335 5.978499651576699 1 -1 1
241 1 9.961733290315395 7.8044100009945385 8.534633843119423 0 1 1
142 1 11.487624021297943 6.0985970667326805 7.6728305710620255 0 1 0
120 1 12.860831844271111 7.881665981087595 8.357825650653234 -1 -1 0
258 1 10.021892254276576 6.886883390293187 5.876200521685934 1 1 1
389 1 11.938266639142459 5.481594017418546 4.714712123319404 0 2 1
315 1 12.783456196830869 7.431967170044796 5.89147942636626 1 0 1
271 1 17.737778949405836 9.357847155542595 7.0015002205429795 0 2 2
293 1 14.831062740737512 8.058811331421046 6.828505856534439 -2 0 0
101 1 16.87012095176479 7.152824471458099 7.749178171959962 0 -2 -1
251 1 14.070985233295605 5.187419096804105 6.804532899387165 0 0 1
349 1 15.024668308440614 6.754488611834425 4.365266566482783 1 0 0
172 1 16.994260143749408 7.575528429117579 4.991228459171869 0 2 -1
64 1 14.085617358652119 9.007721940356085 4.38782669779617 -1 2 0
334 1 0.3629677817023338 11.78872335197454 8.273029329862663 1 -2 -1
500 1 1.3791433828059594 10.247656210191618 6.570666987062794 0 0 1
317 1 -0.23718598589434947 9.128486454434219 4.559260342429228 -2 0 0
322 1 3.2739984785457987 10.63764563637541 5.215775328474112 1 -1 1
186 1 1.8295631639396532 12.684826883009375 5.88104266133423 1 2 0
122 1 -0.3834482766792825 11.63950079692125 5.210283278670502 0 1 1
131 1 9.395235912746143 13.194744192311019 6.347059869779318 1 -1 3
16 1 5.558637675232379 13.164405000974725 8.327654020685092 -1 -1 -1
285 1 6.118436418678992 9.705844293103965 6.6126400443151345 0 1 0
288 1 7.504530215788612 9.83840112075772 4.646858390909656 2 0 -2
23 1 8.571864720691922 9.54893032011907 7.162115209824236 -1 1 -2
5 1 3.987774983706749 10.641622459225934 7.474636547186049 0 0 -1
156 1 4.394370577782303 12.597362148353351 6.034950839778989 -1 -2 1
65 1 7.167111940687309 12.062319393356612 6.105596827984663 0 0 -1
340 1 7.881697885032638 11.716211533986757 3.450997732342559 0 0 1
121 1 11.316586518549885 9.667715868547932 8.71183698794437 -1 0 -1
310 1 12.493555964518187 11.741774317019669 8.279716991371343 0 1 0
307 1 9.735042930589113 11.530847380712304 8.011909046305188 -2 -1 0
182 1 10.856450583564047 8.950099249499678 6.371342166923083 0 1 -2
160 1 9.540232308950143 11.140794969656014 5.103946098142985 -1 0 1
265 1 10.65144328269585 13.705629149853518 8.531875849746111 1 2 0
63 1 11.52778065112743 12.26903039179595 6.096187237283344 0 1 -1
318 1 15.658336668243065 10.093497736655435 8.356936503498613 2 -2 1
396 1 14.157265211876556 11.38393021013616 4.185026137066261 2 1 1
112 1 12.963373151605966 10.16123263835078 6.555833783372194 -1 1 -1
408 1 15.816339245020567 9.945072230899882 5.752316197188368 1 -2 0
299 1 14.743745699273674 12.180066962419742 7.012859937503347 -1 1 -1
412 1 13.440320787438147 13.760115042882932 4.966427475307568 1 0 -1
21 1 15.803542121905407 12.810755579371436 5.074854059163186 -2 2 -1
370 1 17.144126143549627 12.025310158506347 7.139659616584695 0 1 0
148 1 0.048186228319669455 13.966104895423266 7.9273350705004 1 -2 0
53 1 3.875046873163588 14.617532473848811 7.398132763767127 1 1 0
83 1 0.9063086644528853 16.726205038899344 7.227111875379491 0 0 1
404 1 1.9584199854482591 14.928520911174322 5.8051562458049 0 -1 1
24 1 18.250825651754 13.929308733961447 5.709080441960988 1 1 -1
194 1 0.9057860583013191 15.333284820979117 3.270628317255863 -1 1 2
365 1 0.8167736192394857 17.879882024446516 5.130753927763043 -1 -1 1
483 1 3.7340060797584576 14.273646194630706 4.110063330945477 1 -1 -1
420 1 3.4519811918346743 17.339721670496594 5.939653158680929 1 -2 1
248 1 6.3255948371435196 15.717821949782929 9.033252657772534 -1 1 -1
295 1 7.961402545649866 17.005963449287286 7.702420856718813 3 1 0
360 1 7.703773138829682 17.02475915286073 5.31767494715804 1 2 1
335 1 8.161683543049671 14.800927535794148 4.606499014310318 1 -2 0
471 1 6.493844111128629 14.566348518935557 6.3130731864094205 1 0 1
1 1 5.412215129642863 16.29281496415257 4.16209368566217 -1 -3 1
461 1 5.774360446441508 17.045558526898176 6.637708876763177 0 1 -2
467 1 13.292623237478784 13.915888813977302 7.856856153234185 -1 -2 0
126 1 10.80614919308625 17.34275034931632 8.22542694671179 0 0 -1
88 1 9.438795855214252 15.500580921658607 6.83657721789061 2 0 0
163 1 12.618247449362636 17.38608792747985 4.7540851605469365 -1 2 1
378 1 11.99788871611608 15.466158477379766 6.53721684877137 -1 0 0
209 1 14.59390080910753 0.158487159555331 6.067029806364941 -1 0 0
108 1 13.246460682150833 17.502977137857087 7.4699674000208125 0 -1 -1
415 1 10.155946398663662 17.391353389730767 5.04542175989678 -1 -2 -2
159 1 10.746522194943257 14.567610116800767 4.74973059321773 -1 -1 1
220 1 15.086070189886586 16.15523889881537 8.657203566220662 -1 1 2
45 1 16.122908616750017 17.17791522894651 6.615936847187403 -1 -1 1
12 1 17.590495981795463 16.145436373137798 8.125203555521516 -1 -2 -1
124 1 17.975840258517024 16.58458248746802 4.976199405816907 -3 0 -3
247 1 16.828458569898174 13.28656813364908 9.151046783986711 -2 -1 2
376 1 14.247443273622734 15.830718821037921 6.13496714449057 1 0 2
484 1 15.932257429829145 14.376910875194502 7.316742217714444 0 -1 -1
406 1 1.6773819156335574 1.6783655843399479 12.672230997085126 0 0 0
290 1 0.5138301304049981 1.1981786688225313 9.957344416764435 2 1 0
6 1 2.910960365506164 0.02585086559045302 13.970109960893335 -1 -2 0
466 1 2.6752009950764615 2.5173093965715005 10.7142408985137 1 2 -1
239 1 3.87449235508966 2.115177474482349 13.544809290659318 -1 -1 1
336 1 4.708518950646384 1.0542958259474855 11.46457045155339 1 0 1
210 1 5.495866166363791 18.17333442641646 9.535236703390506 0 -1 0
80 1 6.550020813357057 1.6871326253151415 13.125454362811224 -1 -1 1
204 1 9.142031096984606 0.7782146452291647 9.267638081400003 -1 1 -1
237 1 6.903534775876472 0.9584461847781198 10.507509866030174 -2 0 0
407 1 8.499406572659662 0.3307966532126744 12.430884389385843 1 1 0
130 1 6.129722824449203 3.5667158600858606 13.966696461385794 -2 1 1
7 1 8.190539991132383 3.3788250834525413 9.72729129101167 2 0 -1
417 1 5.120271598578236 3.7995032755696885 11.646220196470743 1 0 -1
348 1 7.842303795585064 3.517119224716167 12.305113272675568 0 0 -1
436 1 10.301527354706767 1.9507604228710598 13.198822282660803 1 2 0
433 1 9.886347392236438 2.218456577886047 10.9878206131603 0 0 0
470 1 12.492857566386045 1.4566011107177301 11.971344864756103 1 1 0
387 1 13.551208228301544 2.8949904023710356 8.553696526064677 0 1 -1
362 1 11.724411642720685 4.450581828325213 10.364305656502617 0 0 -2
279 1 10.082563459309492 4.808337859207762 13.875727452388938 0 1 2
442 1 11.995535990804655 3.6779090043318847 12.600801862126076 2 0 -2
78 1 15.553103182913413 2.670370569415178 12.966705785882533 -1 3 1
228 1 14.024183296600073 3.3473900197614803 11.244470829650165 1 0 0
469 1 17.112138543228824 0.9973175283812086 13.834005396636556 -1 -2 0
196 1 13.536059365895435 0.5444250001263526 9.830513838880373 -1 2 0
351 1 17.051533171932533 1.3997274774896653 11.460577565996095 -1 0 -1
35 1 15.470512630922876 2.03936681357314 9.597180869071227 0 -1 -1
274 1 -0.015293097235779096 2.8042750386823845 11.68012068580576 0 1 1
298 1 0.5314694465943108 4.288096772924057 10.009949765783729 0 0 -1
475 1 2.089454369476552 6.269018977105173 10.52317157681215 1 1 0
341 1 -0.1850576112522262 6.783116326724341 11.285867478742883 1 -1 -2
430 1 2.8769205411377836 4.568924697255251 12.27607823246781 0 1 0
454 1 0.4762615968958206 7.1731670419036435 8.902128471837987 1 2 -1
41 1 0.7480600059562676 5.164494289682 12.316260749844632 -1 -1 -1
363 1 3.546754109219444 4.66813799752637 9.533908467342139 -2 0 0
143 1 2.644838655871903 6.9529429395294375 13.006443761808656 1 0 0
332 1 4.1774826829797 8.429945898193129 11.78944562111759 0 0 1
200 1 1.7466972811088102 8.831097063138085 11.301282546780007 -1 1 1
33 1 4.856283015673954 5.881667268064671 12.932279218093116 -2 0 1
443 1 4.631683027274472 6.582453576767023 10.300586690552255 2 1 0
449 1 6.990951133925254 5.501086118266935 10.592056272011224 1 1 -2
212 1 8.108999447918716 5.741374148992231 13.166911593051863 0 0 -1
118 1 5.054695277441237 8.734776976169861 8.715998353336458 0 -3 0
93 1 6.329099333079414 7.452357566433296 11.91466832719604 0 -1 0
296 1 6.283745173059972 9.636192941980031 11.005930740587381 0 0 -1
462 1 8.321624929435538 9.069315724918402 12.136900881159402 1 1 0
246 1 8.758192259256358 6.823448402117115 10.710605234995949 0 -1 1
302 1 9.806049711192069 4.693857628669958 11.437535144807654 0 1 0
106 1 11.113973698630021 6.905299226569014 10.347971256981644 0 -2 0
146 1 12.49742093990966 6.372808842570994 12.31326493660564 1 -1 -1
428 1 13.911594368414887 5.306347297494903 9.774100441598181 0 0 0
94 1 10.061138791024442 7.17811251326228 12.684732572026599 -2 0 -1
119 1 11.774560901038617 9.002767003260262 11.383928726453046 1 0 0
499 1 13.66941187614469 7.523011660990184 10.91874469326351 1 0 0
139 1 13.928801710607697 9.820402940145271 9.792050478856698 0 1 0
236 1 17.315295264208565 8.586290615666451 10.059458267981814 -1 0 1
180 1 14.98532858919538 4.9510861783836715 12.762689182661077 -1 0 0
141 1 15.126834934533036 7.6809487521547375 9.114739724937081 0 0 -1
217 1 16.39800825059941 3.8470221583765225 10.8123866494228 -2 0 1
352 1 17.127574730212594 6.174393997764735 13.327836037288717 3 1 1
244 1 15.663803872528439 4.348685185768415 8.485292398329875 -1 -1 -1
437 1 17.404038076735326 5.50933910963588 9.924923603501009 -1 1 0
15 1 15.684151535365357 6.3253696484651405 11.184526501850819 1 0 -1
27 1 2.2324558588553503 13.358522020804534 11.640023827025995 -1 -1 0
429 1 2.3651322943814566 12.983134622433614 8.35728548022718 -1 -1 0
426 1 3.4914086366841994 10.806628990834641 11.803100395505997 1 -2 0
289 1 2.5657700260021015 10.659057635664047 9.543050252388813 1 0 -2
268 1 0.5192937191874986 9.578963202471407 9.317616851430419 0 1 -1
90 1 0.536886537908123 11.793654039561053 10.695703851967895 1 0 0
252 1 7.122357562404361 11.021071156732274 8.952803308207722 -1 -1 1
79 1 6.553166553715012 13.558893186019905 10.33758027074116 -1 1 1
353 1 4.869547402918236 10.224819173236465 13.36014201599887 1 0 -1
263 1 4.6181864909894355 11.55340796582712 9.800329502290786 -1 0 -1
170 1 7.2029294027596364 10.730672293654724 13.590324753639763 0 -2 0
354 1 7.330280136279685 8.442958024140724 9.029648266706218 1 -1 0
323 1 7.891891956435149 11.762909075552523 10.914271891160569 2 -1 0
277 1 5.902445646038709 12.24000366002714 12.44006591172109 -1 0 -2
117 1 8.178465226737275 13.598063489466984 12.994705676653611 1 -1 1
399 1 9.804816270546233 13.9268373649996 11.089730726906915 2 1 -1
206 1 12.001913240303532 13.458399369215556 10.502443505438514 -2 -1 0
11 1 9.061228680305677 9.835711025675588 10.027499866676248 1 0 2
165 1 11.0636813144308 11.041924323040961 10.494739827888868 -1 2 -1
480 1 14.141002812391921 9.664537218673665 12.589764650845918 -2 2 -1
102 1 11.205917647989423 12.690405811239126 12.85304068420566 0 0 -2
269 1 9.411407494107578 11.096943302078518 12.540415889396936 0 -1 1
140 1 13.318429075436688 11.63023823287148 11.303861518346082 -1 -1 0
227 1 11.901233556242394 10.521843149149444 13.149340561573895 1 -1 -1
377 1 -0.338753341223331 10.194576809519907 12.165015808977412 1 -1 -1
218 1 17.547609110700805 10.84468198184806 9.582709073556043 0 -1 2
104 1 14.676456301626295 12.536965899489699 9.520331506862238 -1 -1 -1
77 1 16.00125049397137 10.321522692002823 10.995803489441776 -1 -1 0
275 1 16.40943367468443 8.666355731415452 12.423690443433198 1 -2 0
92 1 16.50977507585793 12.781688022108012 11.368790818667952 0 0 -1
233 1 15.144142887455807 11.64237114355261 13.415579250964782 -1 1 -2
49 1 -0.21995646536623725 14.316835882725945 10.38735422843597 -1 0 -1
482 1 3.655120089824294 16.9103870117196 12.987103836342252 1 -1 0
497 1 2.0425729987895 15.316303891916581 9.059365180597641 -2 1 1
338 1 0.0857509161177985 -0.024851605730962067 12.262936762417581 -1 -1 0
264 1 1.3030693480043212 17.55006308297805 9.873456248769328 1 -1 -1
453 1 3.6979201863437083 16.98370658363237 8.439662884692591 0 -1 1
270 1 3.9736585340940884 16.729591178903945 10.650750079835792 1 -1 0
54 1 2.4374679770869925 -0.22320346334298746 11.72051285225561 -1 1 0
451 1 1.756044646724527 15.933169201297575 11.728620317452227 1 2 0
395 1 4.209843737267856 14.481757290042939 9.824816910774576 -1 2 0
57 1 7.723000173526012 17.329791552812402 10.428100990100026 -2 -1 1
38 1 8.123098839474272 13.63537726488447 8.430985087489265 1 -1 0
331 1 6.241482861566155 17.897806490626166 12.223763003936797 1 0 0
344 1 4.067471571078837 14.45950881973642 12.239488655119107 0 1 1
324 1 6.401615338976872 15.605992525010594 11.744004193823038 -2 -2 -2
434 1 13.349106927465387 13.809795987703033 12.418742932782608 1 -1 -1
176 1 9.391151144059018 17.250794775179898 13.651027345639067 0 0 0
283 1 11.773304344288995 18.048048403979465 13.337243196410213 -1 2 -1
394 1 10.839574350648588 -0.38022439537420577 10.546038930054015 0 1 0
179 1 13.005763032969295 17.164588674413345 10.287541037214543 1 -1 1
422 1 11.380657861826906 15.844216501999545 11.854823960573098 1 -1 1
225 1 9.148059968729285 15.604713635998495 9.423015431338273 -3 0 -1
388 1 12.059642826914015 15.536980342733328 9.045396641110724 0 1 0
444 1 8.779325210221732 15.931660790997752 11.852780185058041 0 0 -1
203 1 14.058174035596391 14.886052926139252 10.582346144254819 1 -2 1
337 1 14.687655088882485 0.6513266726541174 11.844078760096023 -1 2 0
59 1 16.336854960415295 17.613960648233586 12.767370785133934 0 0 0
223 1 -0.3804925515962978 16.191861978193593 12.809290861450059 0 -2 -1
320 1 15.37155134510167 17.399684879897386 10.588176559805072 2 0 0
418 1 17.96652396118379 -0.30885743995734394 8.87469450457987 -2 -3 -1
62 1 17.81807717050573 16.832727351085744 10.546618862266065 0 -2 0
3 1 16.409653698894665 15.095933100986041 10.82319763170332 1 0 -2
211 1 1.0218992585326638 -0.24698210952569533 15.880979961713468 1 0 0
161 1 1.453911750415051 1.2393061771185627 17.942021717288256 -2 1 -2
413 1 0.42394341895856513 1.7037892452333434 14.973975691693472 0 -1 -1
473 1 3.198179527895845 1.1316377555511306 16.157929133320117 1 -1 2
153 1 0.5062814657655782 17.928587911830533 -0.37277743176701805 0 1 1
431 1 1.763948370097351 3.489512608532466 14.022658991805528 1 -1 -1
48 1 3.98105233555974 0.3429469305330872 18.325149339136303 0 0 -3
4 1 3.5196409603037564 4.884004540056586 14.800773356316983 2 0 0
329 1 2.132193130795967 3.016250895999517 16.50630004147014 0 1 -2
9 1 4.997605669987738 0.13903171405769466 14.476140232951066 -2 0 0
243 1 8.282896551066653 1.0224599200824815 1.1441036333396126 1 2 -1
456 1 7.7161822972555925 1.3694775999258795 16.55089895076341 -1 1 0
369 1 3.893144738615341 3.220132533234797 -0.23129177734328105 1 1 1
393 1 5.346702407061141 2.469519995137884 15.670866686861729 -1 1 1
478 1 7.367550930044155 3.926991812975933 16.34115643698467 2 1 -1
162 1 8.519690537296881 2.6732826454217333 14.55610469636157 1 1 -1
333 1 9.935888917268121 2.3317531456729617 16.63541614026626 2 1 0
31 1 9.655032522783895 0.36981734489610796 14.916068476969423 1 0 0
476 1 12.131795519867138 0.5374427324188088 15.334594942522676 2 0 1
481 1 11.506600067352148 2.737619435727677 15.072081875251572 1 0 1
267 1 11.958026300048154 1.6647538026094861 17.914309649862297 0 0 0
238 1 14.099599791913857 0.5820824779855471 14.107222825724312 1 0 1
19 1 9.790666078951428 0.3782070129075846 17.837470495187922 0 0 -1
306 1 12.727464541746034 3.7581363882744663 16.849293077740008 -1 2 0
416 1 14.050292444019776 1.9844611342214078 16.169997307247563 1 1 -1
17 1 17.426170114919508 0.7495994782314037 16.571109436871293 -2 -3 0
205 1 16.796870104804924 2.21032310965181 -0.2230886372488185 0 1 -1
253 1 15.504488859565605 18.31348383449418 15.657774940177811 -2 -1 -1
44 1 17.755511833655632 3.7998771545781382 13.64172325385928 0 0 -1
491 1 16.30467406381335 2.349445806162466 15.361428480115018 0 2 -1
71 1 15.51483893683074 3.9296244047785045 17.292307919836773 -1 0 0
494 1 13.685238315317706 3.16450447923529 14.086294694008036 -1 0 0
136 1 0.31648916741637145 8.094736504030575 13.212260770822773 0 0 -1
191 1 2.549227738213528 5.541610288995032 17.03210949852383 0 2 0
105 1 0.857084701814194 5.978865821614491 15.181800156312377 1 -1 0
485 1 0.2847426937768158 5.301397814418678 17.739532066383674 1 1 -3
91 1 2.7735714510421596 7.454048500268694 15.357503886787597 2 0 0
2 1 2.303258707279014 8.905051664402023 17.634368712625598 1 -1 -1
174 1 3.8970462883612838 9.616962028516745 15.55048289487437 0 -1 1
84 1 6.275680934516036 5.2896141202565685 -0.38495795649576436 0 1 -1
455 1 5.213006541218878 7.779047351638518 14.29919819742572 0 1 -1
72 1 8.042948274438107 8.272959069885236 14.370787541445605 -1 0 -1
164 1 5.506526500248412 7.002353580712373 16.74004301382232 -1 2 -1
346 1 7.908881089999875 6.9377742412772925 16.734825330365265 0 0 1
405 1 4.784752640662898 4.442391606690293 16.71267622986572 -1 0 -2
226 1 6.391755449163224 5.784002141124946 14.633526385301344 -1 0 -1
490 1 14.465735820016258 8.309322887070138 16.70409658452126 0 -1 -2
116 1 11.905737029000726 5.882599738316233 17.48513122422184 -1 1 0
281 1 10.583669732920422 6.912237643280842 15.05720541202841 -1 3 -2
301 1 10.822034829647407 3.881821321708774 18.30197800321774 -1 -1 0
303 1 12.747871548248677 7.995560340057175 14.479352420990052 2 0 -3
465 1 9.712440555753842 9.279645435880632 16.09030767850199 1 1 0
216 1 9.74248171269693 5.085526364683859 16.011802151151127 -1 0 1
235 1 12.6491637505989 5.472724337575262 14.865600160593235 0 0 0
479 1 14.707644247856424 6.231137612720039 15.720422694645 1 -1 -1
114 1 16.734821539633018 7.761644188324624 15.396154211637416 -2 -1 -2
169 1 -0.36735732478469996 7.841565547917542 17.864809385825513 1 0 -2
215 1 17.195406887155016 5.75291939645976 16.293726662725234 0 -1 1
278 1 14.88184592728062 7.238548310417098 13.627836302315355 -1 2 -2
361 1 17.90173733072391 3.574001828422378 16.54112459747102 1 0 0
199 1 15.000808396257119 6.6627976322198865 18.170103765212303 -1 2 0
255 1 15.905419264452446 4.585423818026462 14.880936009995793 0 -1 0
280 1 3.7660187871551045 12.648308673281324 13.628465958952262 1 2 -1
496 1 2.108542253626527 11.010977444242517 15.444262382836257 1 0 -1
73 1 1.6750199881411163 12.094041180620554 17.773029072507075 -3 0 -2
460 1 1.523063651571892 13.918340694455923 16.059997147249646 3 1 -1
192 1 4.088537712084451 11.353170983308084 17.879185670758606 0 -2 0
330 1 1.2192166539865081 11.557693574443308 13.105430808735829 1 0 1
177 1 0.03140869060516149 10.180514343313218 17.52311541860486 0 0 0
152 1 2.5500359170308275 9.193443167742501 13.75946413080031 -1 0 -1
373 1 6.811483586481645 13.164055572176816 16.214323371274865 0 -1 0
86 1 7.411990759958825 15.207192412664403 18.25373802693393 -1 -1 -2
69 1 5.291067487530878 11.637674362937423 15.36008806932748 -1 -2 0
304 1 8.934117910498154 13.654446818927292 15.833965350720744 -1 0 -1
401 1 8.390552612061121 11.281462911262022 15.428184217971218 -1 1 0
197 1 5.821780618135845 14.000206070592426 14.263370607085454 -2 0 1
43 1 6.603501014071805 9.09955378685607 15.982047130055369 1 1 -1
440 1 10.048205247118904 9.292057487323005 13.805943143489028 0 1 2
309 1 11.564891949306373 8.383400949971762 17.60476258568578 0 -1 -1
486 1 12.176850705680536 9.875595418788565 15.811950283645633 0 1 0
201 1 8.3460690958365 9.599787213026554 17.998329970744084 0 0 0
446 1 10.75245743355347 11.841955944273833 16.961565449164734 2 1 -1
231 1 8.44948611859023 12.818755072675534 18.016737405058365 -2 -1 0
87 1 11.69811596227912 13.844355599743036 15.348638503420212 -2 0 -3
474 1 10.635141669695258 11.344781854033542 14.839611792679932 2 0 -1
445 1 12.974818917105194 11.974752585313388 14.631335943418756 -1 1 2
70 1 13.568705006352667 10.765993432838956 17.44394567892222 -1 0 -1
284 1 16.49871902571003 9.53520518506029 17.02381587625668 1 1 -1
125 1 0.26304799870420914 8.913580780384141 15.662881155045092 -1 0 -1
229 1 15.176981425929574 9.521897549093671 14.771178758315497 0 -2 0
61 1 15.346606785030097 11.68554724793565 15.950197260036514 -2 -2 -1
488 1 0.1149555886603828 11.965530733323178 15.52236565433988 0 0 0
308 1 17.349028072160074 10.565194915690398 14.679757281304882 2 0 0
262 1 -0.14777518018465513 13.834629050574764 12.818665491884342 0 -2 2
386 1 1.062526002507154 16.25862215532372 16.35263742084123 1 -1 -2
492 1 0.026662838725768356 14.753902421785844 17.81823921028725 2 1 -1
398 1 17.760205914961887 15.027488017753903 15.083799860762861 -1 0 0
294 1 3.3097529621320056 17.63859714441034 15.92182155457648 0 0 -2
493 1 1.871919847244845 14.641536335700147 13.481664584863472 2 0 -1
458 1 4.06819936692927 16.752164181430686 18.22262507914575 0 1 1
439 1 3.497023333987727 15.27856706221223 15.100347754202513 1 0 0
222 1 1.3075338658116593 17.093457145397508 14.12350905590421 -1 -2 -1
14 1 7.484368439863935 17.95809869881034 14.652083627608006 -1 1 0
245 1 7.983976710999391 15.694633108314504 14.903470308072505 -1 0 -1
380 1 5.866572141330331 18.292058357325455 16.93386820866573 1 -1 1
150 1 5.433917940108018 15.210519541286166 16.844620054749385 0 0 1
30 1 5.533381945170883 16.62378877857894 14.420542023324398 -1 -1 1
272 1 4.0387732881247205 13.16513629080555 16.14355348484948 1 0 -2
435 1 8.221180780957042 17.356615555046062 16.883989717910847 0 -1 1
282 1 10.041849230685386 14.9508480080889 13.844817829380343 0 -1 0
327 1 9.639302223696083 15.572361703416428 16.975920345139286 0 -1 -1
171 1 10.692948637924722 17.589638680371102 16.146685885030976 1 1 -2
297 1 13.959012470603575 16.792841592687402 12.537099347160494 -1 -2 0
39 1 12.848532418567649 15.859264282119566 16.750623890052996 -1 -1 -2
260 1 12.669749330440464 15.52715633125901 14.158640570439385 -1 0 1
345 1 15.853254217090656 15.197279607970259 13.025144686007804 1 0 0
366 1 15.172964908617113 16.014620491022676 15.627345792722986 3 -1 -1
321 1 17.65793962882443 17.619294471606686 14.929206231934694 1 1 -2
50 1 17.127782455813872 16.43223236302063 17.470097254543617 -4 -1 0
359 1 14.358871434886733 13.93056110864838 14.613159883288754 0 1 1
132 1 16.51699869471784 13.117987429681092 14.470038739341385 -1 -1 0
42 1 15.85597854998227 13.961539548179687 16.649163043172543 1 -1 -2
168 1 14.737069359753859 17.036263280200316 17.849648267647748 0 0 0
292 1 15.226001538886694 0.5502836620534655 17.94040782534234 0 -1 0

Velocities

234 6.821842802661025 0.7070574392608786 -2.936591956233236
319 2.5933423130145026 8.271164288951624 1.428199864545016
151 4.0818641051851055 -0.3962494540713145 4.2295926795899135
56 5.968540483486874 0.25211032537203004 4.004950520190539
40 -3.2316402432680396 0.5339278408026181 -0.11330763982357117
438 -4.168414839469411 4.003338597425552 2.005440704574339
96 0.9237440159582894 -2.3364211880833805 -0.0839219100524907
382 -1.5782038973208783 -2.8959233630982597 3.149794635311644
305 1.8409099762663887 -7.409168472447646 5.297181968906883
95 -2.7119857262170175 -0.9843009138716234 -0.6307123430804417
259 -8.526641423828105 -1.5885943853397975 4.055435756159963
123 -2.6295296118343536 -2.752220593356709 -0.4679601301669712
421 -2.535612545810472 -0.7254761812865667 -2.2109637503375676
107 -5.049557067946161 -4.83796253277614 0.3492790988118328
111 2.7736419768963967 1.0236496544877538 -0.03617820534674188
113 -4.686607181695656 -0.006036700503116211 -4.362519935428252
187 3.3823828939593716 -6.086840499575345 2.842286760677516
29 9.134124231861845 -5.178212197223492 0.8233563720256765
392 -7.492285072934853 4.155051499127672 -1.636237688009564
137 3.2658995604181618 5.6462299157963285 -2.3563062185761154
144 5.798346043494505 3.443523277422062 2.987827083843272
441 2.8897149708433774 1.6473625606847613 0.5507021116806664
224 -1.1418594847563652 6.795834814874344 -0.9349605578102207
355 0.08289463145689055 1.860753077890959 -1.36414920121871
249 -6.006750288770543 0.035306917491951084 -2.078227831622975
82 6.115563299301791 3.8199641476307233 1.8622469886559194
357 2.4493898305406465 -3.677154531944051 2.242559165669468
325 -2.7769503777807087 2.071320261055649 2.319049582896639
276 1.1940802690158527 1.945037368725391 -4.614509732797643
364 0.727928048635118 -0.03920120466924455 1.276171082132825
135 -7.601680503210572 -0.5342612395762046 3.7524899121538886
97 3.164673152796187 0.7496966041976169 1.578196802429541
367 2.00547404642115 2.021775510948711 1.4848702794131479
34 3.2012136635126778 4.942049422953469 1.8298519162169071
254 -3.5732680182195637 2.467451572254389 -2.7322419928044446
214 -2.541838367824274 -0.7527897515288028 -5.1179238648136245
232 -1.8610532961839636 4.114671983435474 -2.294300458739915
390 -4.458168979897581 -1.2211325989214306 2.928565346991673
55 0.5356560075547188 0.9792975212093092 2.188670828545051
450 -4.361608374608022 3.2987398496275886 0.13895946129448083
400 -1.4102970945109838 7.193465072045731 4.910444851293692
157 1.2077464823008823 -4.950731814845834 2.1387997767330886
424 1.7888244021180848 -0.3173277619089952 3.046241362381593
372 2.4676745381837755 -1.5524988107040412 -0.8017041180077951
115 -4.485511958839467 -4.494377694670318 -4.396142546978367
184 0.2067877883023752 5.2574733472168385 0.070710459984793
343 -1.6003930469268437 3.1136242572001427 -5.774682319862622
257 3.4877794471886556 -2.377127176606167 4.661058648472632
67 0.10893923932757758 2.3090817886328376 -1.9528826369381085
25 3.581382317179659 1.8358419581605108 4.918608501284259
291 -0.5456836003355703 -3.2282640391702357 -8.35136431388206
358 -6.033633466644427 -1.3892769128614646 6.757996173132362
26 -3.1969740655498713 0.665798221201459 1.874887193891633
350 -0.904823820425476 4.970463442496974 1.2617161103264243
181 2.595939463293162 3.146818911401963 -3.944300854211449
145 1.9432251807761887 6.331603070876263 2.7387808803412734
256 3.656949146308937 -2.855831777658237 2.8391375466143747
155 3.3004721800030654 -5.582875424520944 1.5926669912387155
202 1.945916879042631 -1.5975173770853914 -0.9169984146308854
339 -6.188845089608351 1.501549374725672 -1.1996399961414062
414 -1.3933638447315135 -1.9026708574467412 0.6788100429158945
219 4.5602935632514665 2.950188834745436 3.28597554039592
76 -2.5772268987699816 -3.7114094161190803 -2.2570722285624027
464 0.9577565988242163 -1.6661046483859723 4.17772175431289
498 1.7280361055220608 -3.1688973613179874 0.36925110789333343
207 4.455541980503426 0.8704948315012827 1.9993228320023568
347 -5.586299714947056 -0.015255554622012231 -4.981379475847553
195 7.55515667116777 2.2811716389077437 -0.6108589966717648
356 3.623371885341048 0.4551490166084109 3.0372695997045454
158 3.5418778180289645 5.05177837300545 -2.7621369351554717
311 0.33074147594692466 -3.093084408675011 0.9645240678085675
52 1.1767200928541481 2.8619503269317406 -1.3566211485833521
166 6.191108133180358 4.008771637078471 -1.0835077490208656
287 -9.764384126538815 -1.405406272984135 0.09441270122936515
173 3.844239653088572 3.185804072154056 -0.555455043742738
316 5.881989361474181 -1.7454760546955403 -3.160811580047642
472 -3.1476797952419693 -0.20499325256292592 -6.154220789146389
89 -4.246136286994897 -0.071577093420323 2.3932318269608537
240 0.21739597480789233 -2.972674461340478 -2.7462975118859387
452 -5.0664767744085655 0.8406282123259198 3.0179454229875664
183 -1.0399477763474292 2.9924496824230724 0.8923202864361801
266 -4.983072571637269 -2.0544500156512453 0.8655268029962907
477 -1.8706245246344342 1.0336463179411957 0.6073544604378435
314 2.9881263946062115 3.9418661160102646 1.7701655835702916
149 -5.085861159171681 3.677605939291528 -2.8038309306700775
175 -0.8749148803935322 -2.561528297045877 0.6105129197536004
427 -6.514145246466438 1.5812206972105018 -3.2408544067913034
66 3.81333799574386 3.316507570411989 3.6238462460817797
129 -4.00807720673099 1.4281795384962632 -3.6490958267288134
328 -3.2395724774090007 -4.5416021155657 -1.849532303290336
487 -2.8515196637497606 6.229906719472991 7.601539825876494
133 0.261016196733619 7.88491740340643 -8.223309954908999
18 10.234473434170914 2.076669351412191 -2.51296616086193
463 -2.62416960418321 2.281373397808016 6.58564111930944
300 -1.1575202824223694 1.0740157956373988 4.279025446468517
468 -1.1704192263837765 1.727660707177961 4.553958407773652
75 -1.6690650014954682 5.558315155821865 3.0320076662229223
68 3.6824986414620295 -5.640020022820704 -1.17376733921807
103 5.339755692755183 -3.6468303724896707 -2.4054536085364564
188 0.054528366696360464 -6.632326054838597 2.5894767839558606
189 3.022335528131327 -1.5289821266117951 3.5335623297241594
10 -1.0090673992050678 -6.536954662878987 -3.000793705213263
147 -0.788884457370026 -0.266642678318507 2.275909667845612
109 1.2380592444611171 0.04399870829889976 -2.8859501069206965
379 -3.5411097531788402 -3.488346360703261 7.919972360586723
457 1.527500569182916 -7.918720325023225 6.079044136921082
342 -4.503652316520109 0.789426507921507 -2.815438450732994
58 7.02750567081164 -4.23460966474582 2.5748970992884606
208 2.5306852979079086 0.7156096075053464 -0.971831281179274
383 2.127922592838164 1.6273946882277524 -1.6865502917030046
326 -2.5865326321050737 -4.680865367326259 -1.747266411426839
178 0.02875385356063198 -1.019559671236954 7.899142070165414
261 5.114351463685551 6.351106316051981 -7.37478780128558
495 -8.414531201074356 -5.727528870539131 0.7709919823356886
20 1.0494702761283394 -3.8244746587636937 -0.8228348789874734
230 1.5887571753091407 -8.347517597929995 -1.474386460266114
391 -0.6842338223415584 3.0045504501487676 -5.355399476510626
193 2.147690215454667 -3.0671151297878048 5.727994894930686
85 12.34384813638192 0.540760931724884 3.580767838295432
60 -5.564094606566481 -0.26813294402578486 0.19701673688524735
98 -1.3673411534419437 3.8203474372692945 -4.785158171856589
74 -3.71978542192283 -2.3942736382001066 3.7518980859978424
402 -4.906069484119692 -5.772086093951985 -9.593982753582482
403 1.887174303651189 -2.742163585497521 1.9420968512923587
384 2.0332196532018525 -3.806204013298306 -5.2852356276127885
138 5.456915875320918 0.16119043154146315 -0.5687634794221753
13 -0.3265288841626249 5.6616020240064895 2.941969582089459
127 -4.484437345981672 -0.6570452872047629 7.71956038574633
375 -1.113953143432941 3.3366429284114614 4.1383590097439
8 -2.8140755976038214 3.67130545128209 -2.5832822615886726
459 1.0522994908722647 -1.9217860813956533 2.827729033056067
46 -8.152774729941816 11.006621477684114 -0.23216239295902946
198 3.4146755623280693 1.0745732665196848 -0.08410836411313173
432 3.668522221186267 7.438283933318019 -1.9800617422078062
409 6.552026772977733 5.299093043270911 0.5403049381338991
423 -2.4999878359469294 3.2019751467638775 1.7374778844186962
250 2.0133640026510577 -3.382609919041203 -0.3001256488783333
313 7.2798222122859775 0.07734652210250084 3.377766640281722
36 0.32236744066116935 -2.0395209309409 -0.1502935448014274
128 2.035261441491226 -3.0591420739358117 -5.183490041618058
37 -1.8960364395883773 -8.921844581131268 -2.5511005344410966
312 -4.7798147536319044 -3.1992529708241384 6.262420881625538
100 6.616557976822624 0.735750549966765 -2.100968467445099
419 -6.130190993191177 5.329527104333925 -5.039789106964805
81 3.307771963991209 3.0006084634419445 -3.4026005259391203
381 1.9670294518377596 -1.4004569982416843 8.36314939782534
273 -1.8484689464288284 -2.5905912628518633 -3.8546251505841793
368 -0.47677528677695546 -2.2444868384983914 -3.7302950501452683
286 0.646405058920502 0.1868701954911531 6.925254393603994
185 2.9580328784922023 6.4926891984111785 -0.36874282982703627
385 3.0228704858179976 -3.5766476340476645 -3.865554762752034
134 3.6385205481185476 2.0706789855879464 1.0532137121156142
448 -4.166195631606971 -2.8369108017642692 -7.567361570074389
154 -1.9954895391442462 3.8282031619835 0.7475261069654001
411 -4.92717014674326 -4.548429724396345 4.219406413493896
167 5.322853932086874 5.6917060054646935 -1.7163122551437204
110 -5.9630890002154775 -2.5012168625732127 -0.9192469737895336
28 -2.139320958625564 -0.51788075341101 -9.236020347095609
99 -1.8881880214733957 1.7850263331736702 -0.4406666591097431
410 -8.24602609843635 -6.495300538392043 5.995690475514062
51 1.6541322279638855 4.399519380795552 0.3646563731386859
190 4.788839401414026 2.5046602325200844 3.064698037831612
447 10.976522380722225 -5.400048457675995 2.7612124963143723
425 -4.129221787181048 2.625800036199921 -2.5312294970158216
489 1.62309031543286 -3.550848797908228 -0.33983749678184605
32 0.020155269472011197 -5.045824731724173 -2.7067985407322075
397 5.871939930419224 -6.970512152237875 5.172874308933945
371 -0.8103712871894476 -2.0494565393639164 0.649216270079352
374 2.35372216307771 4.068629006014685 -6.160673991513993
47 1.3512735471436041 -0.8868605970025245 3.224371834788752
242 -2.2965181367170917 5.110416016902459 4.0658696919512956
22 0.8654298270575552 -7.558748931488243 4.008024164723828
221 5.521394078063744 5.196899892176151 4.567518252362951
213 -6.932424591025821 3.674913553844089 -2.339048907166457
241 -0.656054383620967 1.237508492477363 -1.5574238418576012
142 2.7578196454889254 1.5264088584692574 -5.930073455651029
120 -1.2543045840517568 1.0920715785068873 -0.7866094222141218
258 -2.9999619047558936 1.159386708773513 0.9978158482889142
389 -0.11730035575551195 -8.24547459806118 2.3515240814155494
315 -6.218872847256175 -4.610121925035249 -0.3868825732022132
271 2.407345570932196 0.6289494291986861 -8.832845174052455
293 -3.460785918173348 6.360062957995675 -3.887648808161517
101 3.759518512454304 -1.5271945731841556 -3.970817758618531
251 -3.8052149064516567 2.2479479161056757 3.0109297180711154
349 -0.9865254833552756 -0.005170679984430227 -4.467385899610172
172 -1.2444407512649225 -0.7899170692874372 -3.528408381159965
64 -3.5605551696085365 5.367167131839072 -5.353413670677369
334 2.1472514084372776 1.3387426945409404 1.427981671061875
500 4.3465912823168775 -2.0661382699545365 5.10387937638562
317 3.909624763636433 -2.774987541049037 -3.477041421277411
322 -1.301809382372853 2.3778174934329743 -1.3060275654616988
186 -4.005580355213117 -5.436866282506693 -4.443749266659625
122 0.9643849336680885 1.5954735275828549 0.13413531235525739
131 5.635793355438763 -1.8028663616859124 0.32506212618680635
16 0.8452757304454338 1.5380083666101763 -6.747070890122895
285 0.9457844247212127 -0.004629754813699764 9.752485832063801
288 -1.9986026135727377 1.6820771228704892 3.23819281531996
23 -5.336400119429385 0.7675916155265247 -3.249826189635969
5 1.620939874840759 -1.3492004837326086 0.07893943416568187
156 -1.401946585660424 -3.9013226751585903 5.299670478959116
65 0.8424092572595729 -3.769542820867522 -2.5358089975258955
340 -2.091784170371562 -5.8458271190093525 7.926418635509807
121 0.2314543807633385 2.068886701232908 3.12829221741612
310 4.4163243645302845 5.392927780122759 0.051022870467678685
307 1.5089511741430464 2.893478218660883 -0.5714989620527408
182 -5.877017424813887 -0.7105624222143893 1.8015435042225278
160 1.5870842559429816 6.07720266638777 0.9798034220207726
265 2.4724772552170933 9.907600040970019 -2.085980192322216
63 -2.946507369486958 4.2475638161977995 5.581621496023528
318 -12.822498474831958 6.900528758729051 0.2962440492029101
396 10.62745045035267 3.871943988000335 -4.043190428543492
112 -3.131996777304541 1.8114209156891519 -0.3235387959300118
408 -6.854294071891803 -7.39212399371591 -1.439006876936986
299 -4.180718390739739 10.89634780874506 -7.112715645887381
412 -0.7215362096008819 5.241460507335876 -2.551683718487133
21 -0.26942893681054947 -4.677590090836817 -0.5640997572275457
370 4.53091019924825 -3.5077837358394475 -3.7214835538965807
148 4.4028650456543375 1.1201859075142566 3.8944279212971002
53 -2.6336287585396545 -5.743490609664322 -4.593776869540758
83 1.7540466722922778 -2.1413151121106684 5.858650207576047
404 -3.59349404724432 3.807232545937093 -3.102968204526751
24 -6.163119649004768 5.3332895377595255 -3.2192329685358643
194 -6.732148917964188 0.15908799115487043 2.72729153017785
365 5.9938230092122495 -2.827021201245308 -6.618871404481093
483 1.534460329771991 2.9974953661605155 0.25527156620202335
420 -2.0293161855761364 4.658621778916357 1.3376947366909924
248 -4.7609894085961315 5.822360255209278 1.239843923128014
295 1.4260070297340113 1.316425323405468 3.582798793236915
360 1.7677147975544758 -1.6684124092960013 -0.4624547638167605
335 -3.3130425653865996 -3.9817056025204667 3.2336896916971116
471 0.7787589512729161 2.0067853538247022 -2.2065295765134807
1 -0.5355227881381434 6.40284197379679 -0.9289528740572839
461 1.7045382750778493 -0.7221545058217455 2.9004868536480766
467 1.3865172147232259 -4.79611397515839 1.4694551728596519
126 -0.9999191038234272 -3.638218689706545 -1.2526345252649218
88 -3.2107907264960516 3.168068003874987 11.485928068182307
163 -0.6517539252998846 -2.936886825173858 1.5695213085887973
378 1.739108959493206 4.568563923710309 -3.321600104656546
209 6.188630194654049 -2.2088279839738796 0.5347605252095363
108 4.472672209906842 4.7557567067285165 1.7015201397877264
415 5.204277665498827 -10.465362053558556 -3.6498399809592272
159 2.228352848009133 0.3614069116421096 4.663316678183644
220 4.324741339071412 2.4212987290601493 3.546756975587034
45 -0.3120770282798397 -0.7044637116321341 -1.8528866015545562
12 1.0884629750973616 1.1471105774881292 0.1854163638165468
124 4.024327750480183 1.2494797615064637 -5.764529618452206
247 -3.466067316557957 -4.429978411885345 -7.6228773973149915
376 -2.680568574147565 -0.0717574779614916 -0.748802960188422
484 -0.5511608371086476 -7.854562871077487 4.8974051851978135
406 -0.17771417648218318 0.34799131790135557 -7.1991529159854535
290 6.538241791576391 -5.055155048366805 1.27863793007422
6 -8.740512977047747 3.6053847816246134 1.8255472772751902
466 1.513316024019438 -0.37349505198538424 3.6482235753522674
239 -0.06092039713592327 3.1025912958472444 -3.9930360324596794
336 -4.677723309670312 5.373045267235343 1.0493346172622053
210 3.124877572742929 2.649300009040212 -3.5621044279103704
80 -0.8546668349365487 1.3633295459069705 6.33799893777181
204 4.0199444099541335 -4.905114720963836 6.1839356653789554
237 -4.28416421988338 4.348183084563927 2.9894511640523858
407 -5.485418870032898 -1.36674427331352 4.316859498509029
130 -9.660817701734535 6.612330346731573 2.355842599996395
7 -3.122781408331179 5.297226888858888 7.154131598585411
417 3.644789715558899 -2.340937027987504 0.8231013408048476
348 12.843447148597335 1.7597417690754968 8.204377135630056
436 -4.501596323214077 1.3995585633438592 10.724428668307699
433 5.423313869086434 -4.832049776758718 2.8482786726470675
470 -1.9652860363661195 1.5532832636322287 -2.400624256141733
387 3.759262628227585 3.2981399357888184 -7.471505473068214
362 8.757109710181716 4.412848598312146 2.329006473753896
279 -1.4360656547818573 -4.607888335516152 2.968551021963431
442 -1.6245051269431048 -1.325315145891151 -1.6512429094327457
78 0.3781913617116685 -1.7870263306342025 4.661985629122695
228 -0.6379760788471568 0.718050797908339 1.4757106552787789
469 1.0443748647686057 -1.9383520595618362 -3.205924210498562
196 2.5068307131499994 -3.1413904733393663 -9.173970662348394
351 1.4815305076529797 4.620646616338346 -2.202613500749786
35 0.4487488494712594 -5.54065735675411 3.3006790506365267
274 -3.001212431356918 1.5368186560163053 1.7862761053057803
298 6.332095968216486 -3.124960805265064 -3.216418684166522
475 -12.031172557312873 -4.287126567523604 0.44064002612424746
341 7.561302493716935 2.988852145394529 0.6402479384796975
430 0.04177952841446684 -2.8441981832889316 -2.5568425095255853
454 7.3229016464223475 1.7154636927719864 -11.017325386063273
41 2.597235957308065 -1.6174985905592745 -1.5293606889191476
363 5.714203846141729 4.40382917130795 2.005120772461879
143 -1.7355757083678915 3.1388887356956254 1.5971250689182022
332 5.204262630573464 -5.385094746125154 -11.950014446056652
200 -8.856171548458274 2.3369558402893102 -2.5647323703300295
33 0.00668947438544415 0.2218493513839955 -0.3642977959049611
443 0.2734122827902875 -0.6311726976550739 -2.0923634963677324
449 -1.3006883753728011 -0.014432966695775344 -1.9986005038418724
212 -6.234369369349803 -2.048315256740646 -6.784885399984346
118 2.8306369145706816 9.617027858824029 0.9956210643044502
93 3.685423659656043 1.4501388261513826 -0.822163578040692
296 0.6077462070912256 -2.876884201064045 -2.5410309552738375
462 4.460494660717602 2.0237631686380566 -8.153612031277053
246 -10.260641977995537 -1.2981949007974327 -0.8009504582365572
302 -1.1383557004484723 1.0285044065981563 -3.872239972117026
106 2.565274024762308 2.4832171785545167 1.4826972967503984
146 -3.1271570269732294 -1.7949500142612673 -0.03593948545829428
428 3.823122834343125 -6.86779450134562 6.816554665926311
94 1.6722195305368912 -1.4427435869095562 -5.4970748683174495
119 -6.57824720523593 -3.9411689843208073 -0.36848352946016
499 9.623228611546116 2.5592944574785097 -3.70104552685264
139 6.063172263063965 5.117364258567258 -2.162321474423062
236 2.1219573468850537 -3.608712532188201 2.775758462728245
180 1.5551012102512205 1.7944253191373278 -2.6592758736811932
141 0.25493700781614326 4.740746095849267 -2.7106309262930686
217 6.472188253953293 -2.698508466781268 0.29258650028688554
352 -3.837455548651322 6.753604591887906 4.249720818958112
244 -3.658713285968769 -2.9975602841362847 -1.4212013687971217
437 -0.7281877660717693 -2.2097733551414454 -1.6683789899372652
15 -0.16797434484329082 2.2688198277214973 7.416848862052258
27 -3.3194967892385554 -1.5201472504268445 -0.9879420711593102
429 -2.945091133938683 5.700121953757943 -3.0920010371379214
426 -3.846605375087511 8.7491285350186 -5.983524633946901
289 2.4878852101633084 0.5323612213534539 -1.3137794011298163
268 -4.642325453058354 0.8854448263080364 0.42358801098048504
90 -7.686806931724334 -9.370804741228522 -6.18390072124228
252 0.24714683799563147 -2.5161982201967286 1.0930298894647528
79 -6.382753780989249 1.0399088475335634 0.3656729937045095
353 -3.649626698700029 -0.8506226781544385 -9.521845355643443
263 -6.382611718199212 -1.5244375192558886 1.1592406718669666
170 -3.7639202548107265 -2.930623321921252 2.292488098337221
354 -5.449336076617642 -4.234675038480348 3.0597231961059284
323 3.957654097610921 -2.4458993773719166 0.5733170732763216
277 -0.6342380381558123 -1.0058555897872385 3.9806680202070934
117 -8.37596882209325 -2.7919280053339506 0.6411613519329844
399 -1.1448520766726669 6.055789292842483 4.901801940573314
206 2.003551407295034 3.0851360940495356 0.09912613059663708
11 3.8242940417871454 -1.3055637180840158 -2.5390207905381943
165 7.64231160279091 -3.2205472483275703 -3.4275959505265736
480 -4.070527300509763 -3.7932748682778645 -5.206015298617789
102 0.24791735400853784 -4.680464104420188 5.000920991403764
269 2.5958941411008074 4.072209830966357 -1.1468222483578903
140 3.282707705372005 -6.472560754936348 2.924939736257445
227 -1.7438069275273906 2.6812176514030184 0.987865000392973
377 -0.12574967893563238 3.4222168810855567 -3.1699471676094024
218 -5.5828003849231775 4.237509693443222 3.867534415246956
104 0.3904434953207917 2.7220346084307776 -0.5345252375856666
77 -6.500235430876521 -8.839907936610716 -2.966851376143732
275 4.478683351181133 -4.205472480528508 -3.0532482387210953
92 -1.5077954177039723 0.6524366773237009 -0.7402439691666047
233 -4.178802987198822 -3.711028899903818 7.938674408326686
49 -0.2696158091843809 4.129268746324725 3.5642314486151876
482 -6.565224968424555 0.3282375694296957 -4.0245052550017135
497 -7.625408629940389 -3.2562015367387933 -5.191162072867562
338 -6.950959371844995 -1.9565191971888176 2.0160179394129374
264 1.7275752238800335 3.6263124833677987 -1.8013632178340415
453 -1.512087857926426 -3.286442405419038 -1.629075419638917
270 1.2469144548282742 6.187681772629483 -5.142257822569145
54 1.2988651184565043 -2.877360676568534 -5.133552578146168
451 0.5169758985295575 1.4137286253482357 -3.113183791769687
395 -0.3003979336558399 -1.03450475605722 -3.1481303806647687
57 -4.025460926747728 4.026889898624703 2.590570075841838
38 -1.8265453154636533 -3.0080580408898894 5.344788849286693
331 1.471446536113026 -6.119156765596874 -3.4002065793111638
344 4.161430965293909 -3.068030584488044 2.9637666967473204
324 -5.5135658691549745 -0.5101634672441697 1.7962397852810938
434 -8.062456492706545 5.939313056426696 3.4592428786521716
176 1.6272923147720588 2.304888586609121 4.8592359865481285
283 5.302442880359642 2.139560740485415 0.14295663663525915
394 2.526617838743592 -1.7343054904932016 3.4381496850899316
179 0.6077782759453056 -2.0923168928400875 -2.9900802215013615
422 -2.941103125884306 1.0839026838883004 0.317060620806948
225 -3.1724215677449585 -3.702733403518505 0.5754298775554805
388 2.0001121635064685 1.8475894791733964 -2.8124674816106854
444 3.9903356523134685 1.130592408247592 3.829031468536698
203 3.518203913254427 -1.9830135819083718 4.093945803101374
337 4.290391079437253 -1.796799155510164 -5.471425155849986
59 0.7843370813609223 1.7042532378612805 7.275040097064304
223 0.28860305745167275 2.012343175982406 1.5335400282547431
320 -0.31560681127477774 1.1638374269425418 1.8594778741907267
418 0.6335480760947968 5.930205645966571 -6.332749419032962
62 -9.800120887295657 -2.552730923898894 6.018245137077081
3 -4.832457729769356 5.944323943694728 -2.5081173599322333
211 4.26264725186794 0.724136224432175 3.3836165330743655
161 1.0392624389260137 -4.212304589306433 1.8365614824920162
413 -0.35704966453011483 0.7562280260816051 -0.17837748845194015
473 -3.1967028874373025 -0.18713426491230628 -0.23729351734701426
153 1.4486218275887497 -7.497095801085987 -1.2001550736070463
431 -4.600262355453073 2.8994222796350084 6.190381849596218
48 3.523944471408496 0.9569879137016095 5.522353252073139
4 -3.7837231582280575 2.171018417834239 -4.399474517016422
329 1.6630091032352727 -2.99670474489269 5.125560883496632
9 -4.881580918530088 -10.191698966832966 3.1965777657205647
243 0.8587945795912373 0.37188142834975313 12.929623620248972
456 0.45915583383104663 7.508588620431294 2.621867249458277
369 -4.695599789093571 -4.074538133366845 -0.6267619164417684
393 0.08534435852497228 -0.3688963719558472 3.193260716056773
478 4.082749437843003 -1.8234552097097139 5.890353920310213
162 4.77100008070442 1.8830957389514433 -1.3811382032725898
333 -3.9989167820954017 0.6937168636206431 5.732155808463573
31 -1.4045358299809614 -2.0639339182071352 -0.2254303679656294
476 2.369632405295125 5.669616903701943 -5.290990163638758
481 6.998842674814642 -2.3710051129396765 -4.718228337582477
267 3.0357336527116883 1.4660924721971325 7.810017699859075
238 6.59887173202108 -3.966958878197018 -3.7382157481070992
19 -6.162964389385318 -4.255035473316017 3.6742388596092286
306 1.1001457849113214 0.8564068371294628 -0.907305331786437
416 -0.24042341671948753 5.143167846180792 -2.0854179240086173
17 2.416250424655185 -2.280558112213987 2.818934800628345
205 0.7278461358762695 6.033203022005338 0.769148451681336
253 4.607453922041763 1.3308722024518267 -3.6233061361810384
44 2.991676780146093 -1.978315533730833 4.128895580360447
491 -2.4470775866585086 -2.847681070040334 -0.052752045037541696
71 -1.4229919335453989 -2.93610336069953 -2.095607369271655
494 -1.7808178420799017 -2.4375862483071833 -0.7415637358012824
136 4.5339987952194925 2.7357190310652597 -0.799367777711458
191 0.6629639372316046 -6.897752069927468 4.6462493958014415
105 0.1969345998854457 4.818625322627597 4.093640530897967
485 2.167561051915969 0.5309953753151748 0.8803125006877142
91 1.879191534672924 1.7218311952694585 4.498649741322694
2 9.304265243455152 1.700029469295768 1.7573237005825555
174 1.8837763939499275 3.294363765976565 1.2065647655371519
84 -1.5624073590514993 3.1738136286089356 -9.917404607220394
455 1.8169925734593548 5.59146086578998 -0.9581247787777154
72 3.6562109308363153 2.5719143601237255 0.328735111189826
164 5.952884376670062 5.530308673178452 -2.9765622868280626
346 -3.864876846004275 -1.9117142295802356 3.61801602806847
405 -1.5168534197108972 -3.7429826850456993 -1.207803213762916
226 5.38663080063782 -0.3943907291009128 -1.6571704734986208
490 -6.437185625573057 -0.27536446648548013 0.9110066512609325
116 4.796718237927972 -3.50485057806732 4.157906109757259
281 6.1367512246307125 0.21503763401020712 0.8352611113517893
301 1.6870377874679319 -1.5756691768913724 -0.9981350778282662
303 -0.2211348253098518 5.2310526238658905 1.200610983371835
465 2.291353786823889 1.8934559638141653 -2.103874518282153
216 -1.4403371578529964 2.048309830388714 -0.02660596873040038
235 2.4655013925932234 -0.16071694078673196 -3.2817585840785513
479 3.0324176662983007 6.853614482594351 1.0843582093019026
114 2.4932320605109224 3.4480240255010766 0.9964112894508017
169 -3.9959842616272363 -2.960164487847531 0.7176738270138049
215 -1.1423687444528425 4.509362650314696 -7.2182983650718775
278 2.8805199023782633 -0.5507905115251269 -4.595890897739286
361 -0.6061578284111059 2.8003807741786715 -5.193691183872538
199 -3.1825134835958666 2.945085462883291 2.4965843278437165
255 0.216548844509705 -0.19353047243280355 -8.295890712780109
280 -1.4035058026140288 4.272049435578295 3.458664648703701
496 1.9583429208794643 -2.630540184693394 -3.928963952757469
73 3.973606001438882 -8.978272338934756 -2.951008989961366
460 -2.344438793521637 1.11297360541445 -0.7711776991196582
192 4.29486902971488 -0.4079791313771714 -0.9023560839492477
330 -0.16381576466454234 1.8090811313934074 -0.04822074481686135
177 -10.642737736528852 0.9292182827600435 -3.3496602337527186
152 -1.6289917369414044 -6.2570569064959 1.3406803862294203
373 0.26323096784858174 0.25966061097182713 3.815055269355711
86 -6.142237727413191 -1.8183178388029362 -0.2632756402028032
69 2.268101655670071 -1.6876947606891504 -3.632590177253822
304 1.4196065838937513 -3.9166514882542875 -5.015410552876303
401 1.770387812177039 4.44451228958058 -3.6483520272459713
197 10.552401000259213 -6.393619215702473 -7.642616236803893
43 -0.3278293871531575 3.102278862003395 -0.3234991607972365
440 -0.7317328518738061 -3.001416420872654 -9.88155150916578
309 3.083552842494038 -6.577375990008374 -2.499637229121253
486 -1.476357778325075 -1.6868981935513414 0.7401071263455907
201 0.6388486199212218 -2.8804721657733787 -5.632525895020962
446 2.7153882820267388 1.4615907075653745 0.38073818928354186
231 -0.7598408649640164 6.793989908986565 -0.11904724728082118
87 3.0055851506496594 -4.485156048848095 -5.565709818879895
474 0.787415988918241 0.612453346008082 -1.3745727767224354
445 -2.052420325763555 -4.966082769239748 -4.588817389015347
70 8.50512481694995 1.7262220500534788 3.30800196589572
284 0.9615038980491464 7.2924850538412 8.257962797040934
125 1.4028880837865654 -12.010306839989344 -3.943895825012546
229 -5.05822836078924 -2.100782733585007 -3.134405923560883
61 -1.4576941587645964 -4.888335037871917 -3.0972015365605623
488 1.6854047880126064 -0.016363847100523583 3.0475368035407424
308 1.5583097890079152 -5.174909193803179 -7.793671190963749
262 2.177755989728799 2.1712652865622513 -3.749374811178557
386 1.3693480471441102 -4.787833168257849 1.9696065407761936
492 -4.6413464694214115 -0.28483713030892666 7.808954905499717
398 -2.4309142103007444 -2.2455903460022797 -3.5204368972856637
294 0.18462443444513407 3.070632536705445 5.976808045223673
493 -5.840178902569749 -7.455254455772743 3.1308711996939986
458 0.9170253713964672 -8.056636217396298 -4.230297331095742
439 -0.6207378900683779 -1.767697278355957 1.6394709211051175
222 0.5442181232408858 -4.870995438578384 5.987388895434946
14 -1.0512624561107196 -5.185416846651529 0.6021473265327993
245 7.880157512688176 -1.6208335991884388 6.036049812482932
380 -7.8160515877658305 -2.264428033237896 -2.8439526804285813
150 -3.070708722412481 3.7242017985191405 0.4296438860802569
30 4.222587458296416 -1.9282326430822083 -0.12528804981124725
272 -0.36361592072897186 5.014368984773953 -2.334778635381892
435 6.453705358585128 -0.5942300945309942 3.360473795111759
282 -4.995357295062752 -1.7473988319097071 -5.123345929706227
327 -1.3255741487359964 0.36603933324505 -1.3275326133538128
171 -8.079642678386987 -9.033377858959328 0.20947909240228213
297 -2.6228398558055788 1.5981368753753735 -2.5146060718965417
39 3.7914665388491584 -0.25559136424660683 4.062003344473915
260 0.7227697123018327 -2.4285230089689467 2.21184585770119
345 -0.014069780944337891 11.033361596267168 0.8921869874340153
366 2.202973922205327 3.104372459285879 -2.1809975278965985
321 -1.2422839319268169 2.0490621003134506 0.29936654322111644
50 -2.0956134533768913 -2.3883108718558312 2.232780104719233
359 0.6416506828255436 -2.9797796198870223 0.9090987568100732
132 -6.8875738297873985 -0.24098753360134587 3.215053495913583
42 -0.6205143684197598 3.659666528184328 -5.90638286339358
168 4.815256606054998 -6.8635037954379925 5.063052593627744
292 -5.3680709287375565 -2.3192621336074173 4.103713106766638
