LAMMPS data file via write_data, version 22 Jul 2025, timestep = 400001, units = metal

500 atoms
1 atom types

-0.39872171146967084 18.28587506146949 xlo xhi
-0.39872171146967084 18.28587506146949 ylo yhi
-0.39872171146967084 18.28587506146949 zlo zhi

Masses

1 63.546

Atoms

230 1 1.8910215296715487 2.493913795617856 -0.1591535798907311 -1 0 0
388 1 4.36904205673953 1.262171208226472 0.5760289303292121 0 2 1
39 1 2.6275745958106733 0.6308641881038077 2.322997821708046 1 1 1
8 1 -0.16869373939427743 2.126810136615861 1.4129607895187746 1 -1 1
114 1 2.465934008448323 3.257130457054767 1.9530682989871777 2 1 1
14 1 4.4796413505426536 -0.23069659095067832 4.206861078570358 0 0 2
472 1 0.9754848487431675 0.4062493752331733 0.1846728026223717 0 0 1
48 1 6.104321634165344 -0.15088211405223245 -0.35291995830539097 -1 0 0
419 1 5.861958951949867 0.44475738515199736 2.4768483643957357 1 0 1
232 1 8.759957940249882 0.17046888367733104 17.911430761116918 0 0 0
350 1 8.135099578206054 -0.284665549779723 1.5859876200309033 0 1 1
117 1 7.003005163756982 2.2482120372112924 0.9695574490903213 0 0 1
481 1 5.99695594773504 1.7871188504024969 4.512121341243414 1 2 1
500 1 4.958475035438293 2.521465077394227 2.487236488008116 2 1 2
447 1 8.167244546569673 1.7920231456127427 3.1535111820615875 -1 -2 0
287 1 6.891145433563904 3.974726456432551 2.9085053050866625 0 -1 1
314 1 8.638878845385804 4.319896904212213 1.108025016942058 1 1 0
105 1 12.063352616166982 1.8495399627729836 0.4994762401061568 0 2 -2
370 1 9.731862363140019 1.7616054002034107 1.0724633819226232 -1 0 1
409 1 11.908297065019006 1.735735803845682 3.467765373459897 0 1 1
122 1 13.821137947736851 2.4883250637855396 2.1498624694802118 0 0 0
458 1 11.251591002146212 3.9552846361791616 1.7692657234199178 0 -2 0
46 1 12.681213722042312 -0.14171711369851892 1.9703665415782041 0 0 0
214 1 9.757909424254791 3.55504851839614 3.4351603730346216 -1 0 0
337 1 14.497361945320796 3.1016898544847638 -0.18024555554458727 1 0 3
332 1 17.2459095653833 2.9158829662037586 18.143899450285225 -1 0 0
146 1 14.159045876331598 0.5531086380086979 3.443449583911591 0 -1 1
431 1 16.099527055001396 2.2188970090206417 1.7430471518639161 0 2 1
161 1 17.23579817166589 2.3897139364337896 4.376052081451448 0 0 0
343 1 15.339542610565562 3.7699170866538365 3.6568046165127015 -1 0 1
65 1 16.753881680363726 0.1332668790387318 0.5991348998967796 -2 0 1
196 1 16.250393471762365 0.07616197316163631 3.0621901358289922 -2 2 -1
497 1 14.513839198212201 0.3857954565715359 0.6185930619268221 1 1 2
21 1 0.8083564593688382 3.6127153027934673 4.305165681193705 -1 1 0
360 1 2.670635450827284 4.796404793760312 18.160952928835755 0 0 1
18 1 0.32010671658954537 4.630372866356409 0.5115616192008821 1 -2 1
476 1 4.238789525230802 6.446807802384757 4.2090711958286615 1 1 1
191 1 0.10975929978132049 8.796445959434095 3.6161569711119665 1 1 1
489 1 0.1480991887369988 8.86977413272433 1.0238638669090714 -1 0 -1
265 1 1.473819336675757 6.855572937779983 0.6434842892004611 1 0 1
1 1 2.7503466347941536 8.290097901348604 2.3045245028003203 -1 0 0
165 1 2.1030669309455265 5.935490650006762 3.2083723586870105 1 0 -1
377 1 4.411008310299636 4.866275661654507 2.8021389940883177 0 1 -1
216 1 5.212632039924097 3.89180404930777 0.4769386486318086 -1 0 -1
488 1 5.925627916764419 8.316518880347955 0.07881285932646293 0 1 0
180 1 4.032926715467944 6.521511292963928 0.4509827116678008 0 0 2
305 1 6.485901741868105 6.593296844802921 3.902298140679754 -1 -1 0
43 1 6.405434061636047 5.856537173124831 1.2705607906208134 -2 -1 1
175 1 5.143666531696473 7.789263672994668 2.3460532039040896 0 2 -1
275 1 7.947860371389872 7.793202512899308 1.930940334972097 0 -1 0
413 1 9.007208117605247 5.554926166907409 3.815322752141953 0 -1 1
294 1 12.760007596734821 7.8774567660835615 4.380360174783772 0 -1 1
351 1 10.213868328612728 8.541243799807145 0.6795292668641016 1 -1 1
101 1 9.903104190837333 6.302712874886038 1.8262066437443878 0 1 0
375 1 10.601561959399271 8.157260096899407 2.9368779579778597 0 0 1
282 1 12.213369318118731 6.253520066127705 2.797244941263239 2 1 0
88 1 11.757648174354216 6.329131876576459 0.43449418806235174 -2 2 0
26 1 17.259790503395067 4.2648085155411675 1.9883965127929897 -3 1 1
445 1 16.178415101482138 4.957661717299829 0.07490920480553087 0 0 0
492 1 17.146657628995996 7.230246621954723 0.22561818252054733 0 1 -1
383 1 14.590539017761678 5.969629176017898 4.130348881068765 1 0 -1
452 1 14.847043661879011 9.306163285781148 3.4109966716285753 -1 1 1
469 1 14.094206769671374 5.061654028218596 1.614840118752517 0 1 1
387 1 13.432353206786111 7.9902198298335545 1.867923762416444 1 0 -1
53 1 15.738276842212661 6.8174186764949924 2.1447942901316246 -3 1 1
460 1 -0.3521441669137263 6.682241005766284 2.311698900758797 1 0 -1
77 1 1.546396011513602 10.592485525318665 2.472773897762514 -1 -1 -1
164 1 1.0214451224553498 13.20658449848017 1.9668069997047222 1 0 1
380 1 4.052572728181358 11.557342893326338 16.936455260164575 0 0 -1
17 1 0.5165820325491791 14.422304986446152 0.11390761190969555 0 -1 1
167 1 3.7725850683709705 12.851579552964088 2.5560484445941896 1 0 0
382 1 2.2180806503352235 11.872299149660666 0.272560710102045 -2 -1 -1
391 1 4.561520293260605 10.366894870932402 2.089533243077308 1 1 -1
149 1 4.47005093212319 8.801064317059385 4.344096586224419 -1 1 1
317 1 3.959524461066567 9.32852765521803 -0.3330024406509228 0 0 0
140 1 8.207068262738844 9.269841089618678 18.204933522212258 -1 1 1
398 1 5.858373479165661 12.05859291797741 3.315652883643335 2 0 2
113 1 7.111153672400735 12.599498939308406 0.806498423113434 -1 0 -1
41 1 6.801076684103679 10.307400386245638 1.512437827987954 -1 0 0
176 1 9.063189338491101 9.767347426647271 2.561023673176398 -2 0 -2
298 1 4.927606074024903 12.016694926721438 0.3255696793384236 -1 1 0
178 1 6.858443553450397 9.32045701766006 3.6384274626571904 0 1 2
120 1 8.344349048686853 12.152671079461113 3.0526098719550343 -1 0 1
147 1 10.83244265178226 10.82190860014207 3.7244957536225107 -2 1 -1
323 1 13.30660399083855 12.083307489256143 2.833145598361582 1 0 -1
353 1 10.807690268834985 13.336534020712945 2.5154282158343833 1 1 2
423 1 12.034231867791997 9.819658329826916 2.014347354711347 0 -1 1
151 1 11.174310069013707 13.04781654552839 17.281969703746864 1 1 -1
44 1 10.062969192184182 11.475181064830265 0.8281450185369965 1 0 -1
20 1 17.146929053803213 10.226972415744164 18.024434435888452 0 1 0
479 1 16.715167661041946 9.528075529481313 1.6810815867915936 0 1 1
217 1 18.170508053218775 11.355829340365279 3.415847471667818 -1 1 0
304 1 17.19116648703511 13.390715285711797 2.0398941202728755 0 -1 0
378 1 -0.32827836131243204 11.610252127970213 0.9064017802439638 0 -1 1
415 1 14.518280394315921 10.330906940199029 1.1296325023472735 -1 -2 0
84 1 15.868641283997272 11.481105623481362 2.842156378103202 0 0 0
249 1 14.927465499868257 12.658456092478104 0.8411450825997306 0 0 0
222 1 4.046910186677677 14.038251480882936 4.819391287817744 -1 1 1
12 1 1.923737519527461 15.043688806206662 3.7173658525434754 0 -1 0
198 1 3.043596139279849 14.429243540136895 0.9203460288845489 0 2 1
414 1 2.014878144496512 17.001749114894608 1.0587572844414177 1 -3 1
59 1 -0.18785562436627623 18.0204066995179 2.046629013599232 0 1 1
244 1 4.104247687653066 17.803569406054592 1.4638830853756892 2 -1 1
262 1 4.298970407045805 15.735694432041546 2.7734329300987453 -1 1 -2
138 1 1.3894975881695983 17.300219925694442 3.7507366916916602 2 0 1
212 1 4.707143565684138 16.11059993828023 -0.19443610775318965 0 0 2
450 1 7.458345891290617 16.47535489906555 0.372269077540917 2 0 1
379 1 6.624559966373784 14.439427546185355 3.8765949578026553 -1 -1 3
446 1 5.50134343804862 14.322572935745832 1.2201645249656108 -2 1 2
484 1 6.373942480611194 16.626270935741026 2.4867331826064083 0 0 -1
493 1 8.402529013985411 16.619111418193057 3.56271505215012 1 0 1
96 1 8.324819297805986 14.337960839431284 2.138658191763114 1 1 2
172 1 10.25606180829843 17.679819839168402 2.0225483835633056 0 0 2
329 1 9.941879801443031 14.204583830011103 0.311966533306626 0 0 1
47 1 11.244219645312967 -0.3601113099927531 0.08815618022845358 -1 1 1
192 1 11.528376208374022 15.774170051463502 1.6660406014357967 2 0 1
454 1 14.033611587837033 16.694583476772046 0.09531186570522142 1 2 0
356 1 18.171563260583724 13.541621934928768 4.14324720405434 -1 -1 0
321 1 12.335252808327139 13.827953004024133 0.6003992390943782 -3 -1 0
219 1 12.999368930137614 14.825319515848067 3.6322069596355586 0 -2 1
255 1 16.264144492441062 16.575132360162556 4.370069927580974 -1 0 -1
399 1 18.193024879256036 16.791832907500854 -0.03825327018329968 -2 0 1
490 1 0.1239371691493506 15.626202207560086 2.359452897505504 1 1 2
92 1 14.547471147363213 14.687775654954914 1.8236484787470877 -1 0 2
358 1 14.244040324001817 16.806423894470818 2.8240801034146985 0 -2 0
381 1 15.328500971296611 13.597147846826264 3.7968828934467633 1 0 0
103 1 16.228086098838133 16.708149929028465 1.5693213516478512 0 -2 -1
179 1 2.8119108328718814 2.390209149757604 4.27087898064977 0 1 0
23 1 0.616170157849413 1.1854486954024874 3.5413262246616037 0 1 1
411 1 2.8269420848933473 -0.09735695819839646 8.003354655639034 -1 1 0
228 1 0.7212575179986478 0.3432404794790995 8.666211718129933 2 -1 1
9 1 17.837402937162068 18.137747231269543 4.656515558754678 -1 0 1
111 1 1.472467690475663 2.5364344954257456 6.478851834454059 1 -1 1
95 1 2.0986931022155493 2.4200359425289677 8.643316382717313 -2 2 1
341 1 1.7337139424756112 0.21275029480213492 5.711956990566839 2 -1 -1
203 1 3.6288399178808346 3.392159374870815 7.1715020918789305 2 2 -1
392 1 17.9524109345425 1.1020790409748036 6.418202041560159 1 1 0
477 1 3.871188525706641 1.0159799483855196 6.266657592371577 1 1 1
38 1 7.365062345566081 -0.18272096339926458 4.6523501393667255 0 -1 1
237 1 7.975893988164302 1.8366726348240494 5.9006113890229575 1 -1 -1
173 1 9.823263912374324 0.4106276682534512 4.137966720891394 2 1 0
475 1 4.755277693875509 1.3942257353513325 8.75797144637088 0 -1 -1
62 1 5.9800018862124675 2.7025112915915117 6.928148641185725 -1 1 0
297 1 8.041458474051863 2.074089834388683 8.666234146402893 0 -1 0
340 1 7.761250167540169 4.178093263124286 7.997154698452487 0 0 0
158 1 6.188286089722133 0.2041514181475803 6.922072100072457 1 1 2
227 1 12.232911375788333 1.7249030199513147 7.810806320889308 1 -1 -1
42 1 11.395583843603271 3.1860468091220153 5.737480999979969 0 2 -3
311 1 14.02795568104153 2.2271550903567534 4.989726602267559 1 -1 0
127 1 10.032529966277142 3.0185991107149146 8.437362766770084 1 -1 1
6 1 12.48708330099711 0.36780562406682193 5.6098094507125795 1 1 2
250 1 10.23087721041073 1.1092907074217522 6.570115072023047 -1 1 1
449 1 18.043642189755843 2.7564192023594347 8.20316529740701 0 1 1
160 1 14.11222338154981 3.5906986761690596 8.512936618851835 0 0 0
129 1 16.377371786330997 0.641724337351951 7.953582809576361 -1 2 -2
289 1 14.297116172985225 0.304956563956865 7.452037217134613 -1 1 0
93 1 15.604210905836 0.3632458878945486 5.639626630057526 -1 2 0
185 1 15.686235778994147 2.913108800939878 6.617345794769922 -1 1 -1
440 1 18.152569453124784 6.210919885949996 7.632032997864184 -1 -1 1
347 1 3.803728555398269 6.105837111296125 8.123130755731522 0 0 2
260 1 2.2889905838989493 7.984073348641301 4.919649463308752 0 0 2
128 1 2.5613635852282295 5.585229300720096 5.989734012313924 0 -1 0
498 1 1.2246341391138658 4.52374058550461 7.771353784486596 0 2 0
213 1 4.415813596906592 8.128241819585526 6.547956694508026 0 0 0
30 1 1.5258444864838105 7.709316506002603 7.168399366328528 0 0 0
296 1 0.487061694049303 6.416221508644452 5.193435676960899 0 0 1
253 1 6.177241170452236 8.81266044036757 8.075369014102067 0 -1 0
132 1 6.87364766449761 8.717312354417299 5.7696212903300355 1 2 1
394 1 5.706738524428108 5.6500515212532765 6.542655436310111 1 0 0
145 1 8.032453272356562 7.057239073245453 8.745268839901383 1 0 -1
79 1 8.001024660792261 6.294867491781131 6.269882701406218 -1 -1 1
205 1 7.142953518019244 4.2813455083066625 5.273756745318412 -1 1 1
293 1 4.641129649190228 3.8073443360290407 5.128074070784352 1 1 0
171 1 9.000714129767937 7.796002275583 4.541817612030752 1 0 2
412 1 11.685844035725081 4.541131889016047 7.711329884263749 0 0 1
182 1 10.897279951307198 8.791501416724621 5.741610409250837 -1 -1 0
75 1 11.865370943271714 7.427467489099588 8.863306118268854 -1 2 0
40 1 11.083249794988086 5.727891156192314 4.9979093732142275 0 0 0
135 1 10.158384820148589 6.534162168540639 7.440147808729113 -1 -1 1
130 1 12.394297706260039 6.931836133325339 6.454766449575034 -1 -1 0
339 1 9.432076209990154 4.090088780623971 6.108091412096405 0 1 2
51 1 12.708422079116534 4.104285773961407 3.7653084480404457 1 0 0
266 1 16.150221912940637 4.858645093054917 8.092996177992205 0 0 1
11 1 17.887584021829205 4.067871753212533 6.263661813466297 -1 2 0
56 1 18.21085008055165 8.359972514533455 5.903873784729719 -2 1 1
439 1 16.22601665979269 8.209236828281323 7.600790176135142 1 -1 1
485 1 14.645789003574082 7.80472455768208 5.658660777335402 1 -1 -1
5 1 17.34612545415014 5.089423903799238 3.9392943689157254 -1 0 2
313 1 14.16389185794047 6.4210120133241375 7.990364217521072 0 -1 2
258 1 13.821203501696498 4.796143153194792 6.111711871803947 0 1 3
349 1 16.179025477371333 6.004983871184612 6.130216006825317 0 0 1
104 1 16.663563606629033 7.571300553089105 4.315715564051314 -1 -1 1
427 1 1.662271147020315 10.138739682387104 8.100683339850109 0 -1 -1
389 1 1.0400989291862939 10.411829699565288 5.448808918905618 1 -1 0
247 1 3.519979987201116 10.937747090379355 4.0855144063804625 0 0 1
229 1 1.296777298589288 12.548918097957939 7.128638483651801 -1 1 1
201 1 4.102637259165081 12.473072286223813 6.552266747431629 0 0 -1
491 1 3.1848503588850194 10.100105112944771 6.327320084268613 0 0 -1
25 1 1.8411649655291549 12.870650199920105 4.643650054348626 0 2 -2
32 1 6.020793579427687 12.525819034516859 8.333760166899667 0 -1 0
148 1 4.598289323259917 10.62083765864809 8.379851806855068 1 -1 -1
397 1 7.359719147901175 12.597873187058557 5.312241850550392 1 -2 2
390 1 5.540619848579614 10.89972655860968 5.673205154565534 1 0 1
107 1 5.84786436221861 14.387109195937311 6.67329859787008 0 1 -1
246 1 7.437351770609574 10.659835631490308 7.581365964802978 -1 0 -2
121 1 8.767038647246702 10.48731054096535 4.995302644380381 0 -1 0
259 1 8.928917321058877 8.707071309154411 7.0932389596195256 -1 0 1
366 1 8.899177450877712 12.712923758159267 7.199369922681611 0 -2 -1
272 1 11.243609571070293 11.965648907291003 9.038277516681166 1 0 -1
153 1 12.131760889172035 12.827519560541186 4.639760035305586 0 0 -1
357 1 10.398314629221986 9.527383985973964 8.490337466909471 1 0 0
231 1 10.624259074610288 11.044449238245804 6.5547120192061525 0 0 0
137 1 12.790400849587147 11.933727045849823 6.872282150146054 1 0 0
466 1 12.732723828748147 9.439575136458432 7.364469074498766 0 1 1
306 1 13.086029113959398 10.008107438602346 5.113159021878767 1 -1 0
352 1 9.950553858278283 12.945242484915639 4.962322570669329 2 -1 1
248 1 13.776146771760242 11.113561243834546 8.885246891689338 0 -1 1
291 1 18.14783704125208 10.564502585415093 7.281693115828386 -2 -1 0
312 1 16.913033461607633 9.95252146447641 5.359105724896134 0 0 1
94 1 17.382154210374132 13.03711832027907 8.483906596768755 -1 -1 1
63 1 15.115663008122336 10.130541017212424 6.794794382794597 -1 -1 -1
241 1 14.693296617229977 11.670214796103892 5.026047243259147 -1 1 0
157 1 17.290166539841493 12.354774456245947 6.090104687488539 0 -2 0
10 1 15.204783685579173 12.822245056103657 7.249870568744673 -2 0 1
220 1 3.1503589594058754 16.585399620750884 5.712120980933769 1 -2 0
464 1 2.0899555380851895 16.218902599249667 7.963033059558166 0 1 0
204 1 1.8195910914887188 14.649213399736011 6.207445761684403 0 0 0
195 1 -0.048535835302011054 15.718670427651285 4.943578620818466 -2 1 0
320 1 0.26947851535499956 17.470240904324534 6.648085601508129 0 -1 -3
86 1 3.736929091131164 14.418642585936796 7.890536818353105 0 -2 1
87 1 5.4673706895246275 15.298916681448887 9.283952829038585 1 1 0
54 1 5.448761526630556 16.404186205665773 4.950739200305834 -1 0 2
29 1 7.61004556247034 14.44533314092506 8.119988513954613 -1 -2 1
393 1 4.64466477527439 16.929418042484954 7.700459392411467 0 -2 1
426 1 7.117569554260762 16.56279973419501 7.021923600930162 0 1 -1
13 1 8.524323475208838 18.156947178415507 8.249441806918199 -1 0 0
16 1 6.03773147103409 18.02331663748174 9.266287186123467 2 -2 1
396 1 11.3500034456061 17.986062959540106 8.094674614813297 1 0 0
242 1 9.731112746928023 13.960981078506125 9.193000633582878 0 -1 0
369 1 9.363916084291237 17.20854593258862 5.825309216704115 0 1 -1
254 1 11.913874742946163 16.964290555692386 4.034706000810115 -1 -1 0
322 1 13.12837014481435 13.824579056838832 8.847670170055721 1 -1 -1
152 1 11.29410047888482 13.610550468780175 7.3320352974359615 -1 -2 0
142 1 8.627883904777235 14.841229466010041 5.677907156990308 1 1 1
155 1 11.450591249619745 15.775872576260705 6.502022167291532 0 0 -1
81 1 9.490354691455769 15.89007234848834 8.257839080710257 0 0 1
187 1 10.461592534893608 15.05373437055121 3.916183979148007 -2 0 -1
278 1 13.574071271228703 16.699851751595354 8.072394875283079 0 0 0
85 1 14.075221949174717 17.058293926029194 5.39087360509877 -1 0 1
206 1 13.513693228862873 14.609603375282838 6.1387269512122655 0 0 -1
424 1 16.085190642078977 14.66921772055509 5.913982837389006 1 -1 0
330 1 15.656969008558805 15.065446717064589 8.057097853817897 0 -2 0
364 1 18.094477847569806 15.31585268328128 7.356049434025391 0 -1 -2
309 1 16.167830329387343 17.13897529281426 6.827018321065312 -2 -2 0
31 1 2.4575722930871526 0.5384974810807173 10.289921803950898 -1 0 0
209 1 17.80261408998568 2.1242678592386404 12.827362388102284 0 0 -1
407 1 0.4293205369913796 3.8865539834260217 12.344296517402952 1 1 0
3 1 3.503265699282158 2.972032819978863 10.421223242151909 0 0 1
359 1 2.0901360729612506 1.3076854604269543 12.526425237723345 2 -1 1
474 1 0.21959253353199937 2.2725423849949 10.359744934565997 1 1 1
467 1 4.567670279452356 0.39681092331842294 10.962511177396198 1 0 -1
125 1 4.4166492037864975 2.2674244315025733 12.495938645709279 1 0 0
290 1 7.062674346597298 3.2869157873843795 12.910874456360457 -1 1 1
82 1 6.3596185802712535 2.249546459011529 10.425886659051047 0 1 -1
416 1 7.984666591200739 0.5390885077606112 10.778791511796328 1 1 1
245 1 6.560858181835344 0.7407659245379763 12.93037566918312 -2 -2 -2
451 1 4.3162427032875055 -0.059181397109750455 13.559962920489484 2 1 -1
371 1 8.658930393313995 1.3100831840110727 12.879296513209372 0 -1 0
461 1 9.275818306220383 2.8011438962051125 10.849875977365473 0 -1 0
295 1 14.324475792012462 1.2127433216214258 9.933663533500225 0 0 -1
261 1 10.667093824416668 2.719572548971813 13.133054954228397 0 -1 -1
109 1 9.048600582156856 4.672456641622043 12.394521884361751 -1 -2 -1
363 1 11.838486228577512 2.429708997765972 10.169069042247607 0 1 0
303 1 13.032371845509118 0.9136502565066003 12.194091153491204 1 1 0
134 1 13.945632772873454 3.1697021815139084 11.438282835902756 0 1 -1
224 1 10.17514961416601 0.8881723130679486 9.530368512329288 1 -1 -1
2 1 10.76355000493938 0.6776803646580567 11.863960502506298 0 0 1
159 1 12.861309772151326 3.30620264712396 13.681500330933556 0 1 0
71 1 16.015812212613973 2.96910801253995 9.878689181969428 -2 0 0
270 1 16.806992072284473 0.30153445921561817 10.26711622266517 0 0 0
240 1 15.715362023235565 1.750907126696566 11.90619099937034 0 -1 -1
432 1 16.18067444226508 4.119186429375446 12.378707117352565 1 2 -1
183 1 17.022554706272444 -0.05897854016265841 13.238881419500439 0 2 -1
283 1 3.2658143295743485 5.691930028272873 10.38063581254116 2 0 -1
436 1 17.92744412686018 5.831063626942171 12.846509169523836 -1 0 0
327 1 1.559857107698876 9.055973120097239 10.774998530829777 0 2 -1
372 1 3.4662038665496406 7.905759229617885 11.751689641483221 1 1 -1
429 1 1.2750988919854094 6.4659396338373885 11.8403466631893 0 1 1
197 1 3.348239443272127 8.326840817231911 9.206072009002325 -2 1 0
459 1 1.5392036019095003 4.2646523590180125 10.126310543385896 1 0 0
202 1 2.705842387254609 4.1908557027568945 12.552772241584709 0 -1 -1
420 1 1.2268214042640162 6.721921811884834 9.369904221429575 3 -1 -1
131 1 5.294936281476635 4.267504051718677 11.537730272654798 -2 0 0
190 1 7.349741585140352 6.657885815266744 11.383953582218961 -1 0 1
200 1 5.222875203182602 6.4737191395765965 12.33902332363559 1 0 0
97 1 6.831540630187748 7.925717552812408 13.656394017222258 -2 1 1
154 1 7.4974162759945795 4.50200309391586 10.361223055398412 0 1 0
210 1 5.364522650686413 6.60327814317804 9.872175807211386 0 -1 0
335 1 8.044315792246858 9.203520803044372 9.584314390167785 1 0 0
74 1 5.40276054874789 4.03852376894914 8.878654421535412 0 0 1
425 1 9.221287081559947 7.069995399208243 12.63218273320418 -1 1 -1
99 1 11.513295025264412 4.327900599618721 11.449420695632405 -2 0 2
438 1 11.581115670235526 6.644571080927853 11.541058232363074 0 -1 1
76 1 13.649388740643914 5.340454431869249 12.55625117861786 1 0 0
22 1 9.810166344972329 7.805237092703454 10.18917756713431 -2 -1 0
67 1 10.14179930027195 5.187789597582361 9.771620422444487 -2 0 1
280 1 12.755138060218735 5.4076605606032375 9.62942312103862 1 0 1
328 1 17.78310019116526 5.0655208479782985 10.311021115543982 0 0 -2
374 1 18.195326547271478 7.567542430600811 11.126981768312147 -2 2 -2
471 1 15.026932379991461 5.181322535158426 10.61863814846446 2 2 0
410 1 13.857990579895313 7.766561445951645 11.462869506638174 0 -1 1
215 1 16.080657070108458 6.919825142463468 9.526251103092108 -1 -1 -1
257 1 16.164098422279302 6.986474865782573 12.199970404315632 0 0 1
463 1 15.35652329206089 5.3272317320785305 14.294260222332149 0 0 -1
33 1 14.677990495774157 8.353899343034152 13.75389004091787 0 -1 1
7 1 16.14406100952175 9.03017603406233 10.792267024272968 0 -1 -1
90 1 14.328696208039364 8.67074461363146 9.026612813073726 -1 0 0
60 1 1.463414572463562 12.260347086489427 11.217944898721582 0 0 -1
150 1 0.5586269540507903 15.086407439698393 11.974505412029565 -1 0 1
264 1 0.13855524419309995 11.360058696315493 9.46866021691198 0 1 0
52 1 3.819283878422695 10.10623783441878 10.969866801431413 1 0 -3
108 1 18.010328749132285 10.107930476513268 11.59787071120543 0 -1 1
404 1 3.1165050660013143 12.305117333558096 9.034511502177825 1 -1 0
437 1 2.1923410105785694 9.916170900939717 12.77766477012061 -1 -2 -1
288 1 5.732763013550824 8.721672858774676 10.952678145934259 0 1 -2
61 1 6.376330733124706 10.988110158741815 10.247025523128384 -2 1 -1
310 1 5.59731481121609 10.700295177518571 12.649364719932635 1 -2 -1
308 1 7.630393342653056 12.392678577388219 12.292250779704025 0 -1 0
301 1 8.403747484239794 11.905542850524473 9.440333351893093 0 -2 1
218 1 7.820183494960048 9.641525769294168 11.89090093281825 0 1 -1
325 1 4.3827437321483185 12.555306088060991 10.82509643623176 0 -1 -1
422 1 8.797892000445792 8.699670450161616 14.401400324174771 -1 0 -1
100 1 10.65180500841648 8.894157615226442 12.469208092395315 0 0 0
91 1 9.372385194869832 10.961489033086703 13.219204773816971 0 1 0
299 1 9.76179905018537 10.555105771871595 10.698399213551749 1 -1 0
223 1 12.040541007896637 9.370517481525518 10.44628822296632 -1 0 0
418 1 11.972622917630368 11.510427735985774 11.38637364819982 0 0 0
434 1 12.14191158922865 13.95116995757733 10.967811805665104 1 0 1
405 1 12.676563691098606 9.869381190064113 13.096662288739473 -1 -1 0
256 1 12.070825917402233 14.572937860070395 13.269841837559627 1 0 -1
355 1 18.17049847170415 8.829438205626392 8.842900536606706 0 -2 -1
36 1 15.832773550729028 11.752494160370645 12.05986882604686 0 -1 1
70 1 16.35161759937818 10.822342557484848 9.084767433512079 -1 1 -1
345 1 14.178548152576239 10.213620831647345 11.429394861604738 -1 -1 -1
263 1 13.91332775894595 12.582158243020272 12.413079556465728 -1 -1 0
361 1 17.909453024300433 12.912294009343823 11.112500284906584 -2 0 0
235 1 15.29787853860065 12.74207878231274 10.089095060945857 0 -1 -1
456 1 0.9725242975086594 16.89191403103961 10.184601311533074 2 0 -1
284 1 3.534091415991047 14.331139583639825 12.904171594411794 0 0 -1
344 1 1.3332458090039794 14.033570861405801 8.955719266242175 0 -1 0
281 1 3.225772656625147 14.674017369126936 10.5711694582934 0 0 -1
395 1 2.5113688675850687 17.1534522276361 12.051185155142798 2 0 -1
486 1 0.7056608394805028 16.781794249664884 13.697621819938014 2 -1 0
403 1 0.27347751159001243 -0.01060916599294609 11.484601941056042 1 0 -2
421 1 3.5238312110430856 17.09425446956469 9.897428995804255 -2 -1 -1
73 1 5.566085376871808 14.92434557302446 11.62781266298775 1 0 -1
448 1 9.778230869925906 15.191520592639433 11.35501079739688 1 -1 -2
269 1 7.39620038109964 13.881127088620163 10.60148473148724 1 -2 0
307 1 8.629987956463602 17.58492379211644 12.696741444468014 -1 -1 1
188 1 7.340877286984165 15.202438073556493 13.055531124583249 -1 -2 1
4 1 6.530527422169667 17.198550006648148 11.637478394266017 -1 0 -1
385 1 7.708598925253693 16.23729429362183 9.898385996205338 -2 -2 -1
286 1 9.833659487778363 12.933564359104631 11.541875769139015 -1 1 0
400 1 9.68858518001919 17.47438082089817 10.622673503523403 -2 -1 1
402 1 11.761886425002757 15.571342121259676 9.350492413767558 0 0 -1
144 1 11.163974417007607 17.158157760913532 12.49628100791759 0 -1 0
184 1 12.826909990301266 17.76134756540079 10.336666964163133 0 -1 0
199 1 13.354191839414588 16.310450186483642 12.48554574210937 0 1 0
194 1 15.195102611342513 17.421794533556756 9.614923432742943 -1 0 -3
139 1 17.445749775828027 17.197297301944175 9.060727631620518 -2 -1 1
273 1 17.157308164016563 16.545561888411292 11.888976987747869 -2 0 0
279 1 14.167846054507356 15.505773786426479 10.461471018000186 0 -2 0
83 1 17.491873948424654 14.865206114988915 9.910016157652121 0 1 -1
102 1 15.579128003317926 14.24540111965779 12.006707676814129 1 1 -1
333 1 15.03913695683864 17.952798669982222 12.110735509054912 0 0 -1
112 1 18.022470268056885 0.6169324915529455 17.1767141010069 -2 0 -1
251 1 1.526494573531918 1.1965155422644267 16.44378408117885 0 0 1
430 1 3.0241651938226246 1.8071168800384436 14.74299894412571 1 1 -1
163 1 0.5120159985802698 3.6914723338095063 16.92028812494706 0 -1 0
326 1 0.8630958968327542 2.8515356104145533 14.54728626753906 1 1 0
64 1 3.8134863110260167 1.7240930113777697 16.993221388300757 0 1 0
455 1 2.752036877537997 4.289972553770278 15.703161325980075 1 1 1
368 1 7.637525843065054 0.15278536171761914 15.376370213394745 1 1 -2
318 1 6.6338948855586 1.9422918880869888 17.124604758127905 1 -1 -1
334 1 8.828526929939713 2.330289057380465 17.316726455476235 2 1 1
274 1 5.169070940502726 -0.04303237941734628 16.054509912795805 1 -1 1
89 1 5.608467181207962 1.9700577929178542 14.818732717696939 0 0 -3
300 1 9.2913516077825 2.0390732135486913 15.071611025681161 1 0 -1
106 1 12.542507399626906 0.8872248055628642 14.363955879857025 -1 1 1
27 1 10.935318186904553 1.409777867467678 17.002018697905037 -3 -1 0
252 1 10.443227365034518 3.655239327383364 17.891769352492826 0 0 -2
234 1 13.060673101127342 5.087600661539887 15.455695381700513 0 0 0
480 1 12.620612847048681 4.181485990096628 17.688054696297932 0 1 1
133 1 11.329636048118727 3.226562353131073 15.637639246599898 -2 2 0
483 1 13.278832270032884 2.039393227056144 16.326676547869532 -1 1 0
124 1 10.128418366810836 0.07603360877767662 14.308249454725066 -1 1 -1
487 1 15.651620349415326 1.6347035262753487 17.033587172096848 3 1 0
55 1 17.316353151445703 1.9730577244167238 15.31357534610077 -1 0 -1
348 1 15.423695714188641 4.093950475477051 16.42396918787067 -1 0 0
45 1 15.021770959813594 2.683689681587163 14.328919543064169 -3 1 -2
174 1 17.30266892073137 4.063023556097422 14.621919254577243 -1 1 0
177 1 15.160899631098507 0.282324080659882 14.972831992742615 0 2 0
78 1 0.2568158823165544 8.428070000593321 13.508225624000298 2 0 -2
324 1 2.0969439864005652 8.725608684059926 15.143921442419865 2 1 0
68 1 3.298352707950245 6.505846819111086 14.418516850937387 1 1 -1
238 1 3.30211961446542 6.9339833231445045 17.049783499479634 1 0 0
119 1 1.1092680467300389 5.855188491626808 14.35888519927117 0 0 0
276 1 18.248631065362602 8.030439597110247 16.833171098401568 -1 -1 -1
346 1 1.0703414682816716 6.209957418328107 16.779299049429664 0 0 -1
302 1 4.991658398520621 4.3560369355136475 14.152313819016467 0 -1 -1
116 1 7.13340584042398 5.590593106554912 13.672776579640498 0 0 -1
338 1 7.112918788065686 3.6406944655883793 15.325912047544954 1 -1 0
181 1 4.966049870225164 3.910661539827367 16.628962332952124 2 2 -2
386 1 4.682390331013809 8.801608896794457 16.196272722436643 1 -1 0
473 1 7.091276810509303 8.523566152425033 16.325410092418675 1 0 0
207 1 5.530604571153333 6.768168232169338 15.412878315206049 1 -1 1
239 1 5.865994542457563 5.978011774691326 17.5586016320188 -1 0 -1
35 1 7.650852740207032 4.396114983969083 17.70465003278616 0 -2 -1
57 1 8.021173033883583 6.402458273503478 15.79660315332693 0 0 -1
433 1 8.112664474358125 6.851399915867901 18.233106463628516 0 0 -2
58 1 12.703425227030998 7.146699651714749 14.030502688864617 -1 -1 -1
441 1 9.282284607745828 4.5571903228949395 14.980316999950311 1 0 -2
193 1 10.434291447143032 7.007598162865218 14.85436540097655 0 0 -1
98 1 11.033335106374492 5.100216415490352 13.459240921498077 0 0 -1
277 1 10.043466700119126 8.13168905121195 16.821757478660558 -2 -1 0
268 1 10.323778865298603 5.765806022125803 16.971715161282688 1 0 -2
189 1 12.279752319568475 7.32360503692848 16.629190538273495 0 0 -2
141 1 12.54318985939005 9.154524648486102 -0.369851656913486 0 0 1
208 1 17.11915472361693 5.798752521585934 16.827310824354786 -1 0 -1
24 1 16.997627298301204 7.1566869184002435 14.755063186175917 0 -2 0
336 1 13.608462292724907 9.152958521337785 15.847164279559447 0 0 0
168 1 16.09306221218194 9.015254791094327 16.4201972363292 -2 1 -1
319 1 14.854233873246923 7.057847298941484 16.00860308782867 -1 -1 -2
267 1 13.892847718143328 5.917451388147445 18.188853915711206 0 0 0
115 1 15.060011599205316 8.506652640447175 -0.15882599340677378 -2 0 2
442 1 3.4644783765049803 11.810251014849053 12.957702236980035 1 0 -1
271 1 1.4921234291982273 13.579498344696788 13.784964265677482 1 -1 0
233 1 2.4857528472555783 11.208872157326919 15.1474287227257 -1 -1 -2
226 1 0.1341923181938247 9.972262859713192 15.190813556271403 0 0 0
316 1 0.5602504608225364 11.137014854714462 17.43814946628946 2 -1 0
118 1 1.8657849272971956 13.316891002832419 16.903021883154455 0 -1 -1
465 1 1.6519892462785446 8.875034109838635 17.76992193633978 1 0 1
408 1 8.589871074185568 10.43686621496474 15.963295636555923 1 0 0
315 1 4.478808532605025 8.57816573555488 13.646979987316577 0 -1 0
428 1 7.239301102855141 10.756660186796257 14.211962419933107 0 -1 -2
384 1 6.409993220591735 10.49773638422361 17.526859539997265 1 -1 -1
367 1 6.106175760940407 12.672545919562832 16.105350733759707 1 0 0
225 1 4.861895856557937 10.796994306295883 14.867577507324992 1 0 0
136 1 10.77813498766691 10.304938874722799 17.315044008271663 1 0 0
285 1 11.249322247630476 9.659110363011813 15.156299385231426 -1 -1 -1
373 1 12.663822820749047 14.158544711749183 15.867611747247828 -1 -1 0
69 1 8.563673985649244 12.236130638771495 17.33225498177337 1 -1 -1
186 1 10.161808944381384 12.027703012521975 15.294090554312302 0 0 -1
342 1 12.915428270369514 11.898751609778452 16.16259316931047 -1 1 -1
123 1 11.913338010357796 12.080210622144135 13.7682255233763 -1 1 -1
34 1 12.382992320458273 11.450920379011313 0.027521709581860378 0 0 0
376 1 16.60117105539564 13.334073198823447 13.959306894268462 1 0 0
470 1 16.49590098821102 9.618254258416291 13.437100546694628 2 1 -2
49 1 14.698821503235775 10.94049400150277 17.439311843115835 -2 -2 -1
37 1 15.045535719319602 13.028024035348801 15.749321807435143 -1 0 -1
362 1 14.636789035412049 10.923864513712603 14.259127226530968 -2 -2 1
162 1 16.831906817564757 11.09992871792868 15.549786315088848 0 1 1
331 1 17.305810137011783 12.795589260056932 17.782235652259864 0 -1 0
28 1 0.13456396640877588 11.50246623497724 13.41193689414502 1 0 0
444 1 -0.10128949132135606 12.967234678010026 15.581112821150905 1 0 -1
156 1 2.5860451284986494 17.91667650359156 14.853816656804463 0 0 0
15 1 2.2794748982557222 15.543630074377312 17.45382277868142 1 -1 -1
468 1 4.251662869024361 16.218511032881665 16.006510356699696 1 2 0
72 1 2.2330474221883017 15.421417442811228 14.794672156638528 0 -1 0
401 1 1.1078356579642212 17.5051537281523 16.548757122708317 1 -1 -1
166 1 3.8075928235875187 13.172912756812167 15.247910619238318 0 0 -1
457 1 3.317515934938105 18.096567909782806 17.676201949190663 1 -1 0
66 1 0.059515998694180616 15.186408154993734 16.638513275872043 -1 0 -2
478 1 0.36737093722124314 0.4737392036539837 14.182278933925957 1 -1 -2
126 1 4.670272804115869 16.185609836624963 13.501426881702736 -1 0 -1
499 1 6.601484063457912 17.15556693772438 14.143390781021317 -2 2 -1
417 1 9.66398932496883 16.550477343885298 -0.2048085734939633 -1 1 2
292 1 8.096961015974175 12.892918806173585 14.915444856069179 0 -1 -2
443 1 6.119318709845259 14.707827997055535 15.284262097525405 0 1 -1
221 1 7.251013804498628 14.233714867587475 17.673616738139852 -1 -1 -2
496 1 6.927619723405301 16.69447086025943 16.584005718876323 0 0 -1
243 1 8.9781782024819 16.67673741719313 14.986616904167793 1 0 0
354 1 5.509805873649992 13.033140272146232 13.356296124323928 -1 1 0
110 1 4.599377991413075 13.918584140931157 17.617911840973655 1 -1 0
435 1 9.282515094960125 14.864179620295 16.547878650065133 1 -1 -1
236 1 13.50346377643465 -0.16562137921606448 16.973754815471843 -1 1 -1
494 1 11.951750305867048 15.795317698103394 17.921460114331314 0 2 0
143 1 12.72276144425287 17.449455684265814 14.620210406511037 -1 -2 0
453 1 9.751122392786048 14.254436861639935 13.81041437722625 1 0 -1
170 1 10.994781208086751 17.718052385397314 16.333420736342024 0 -1 1
482 1 11.130945221946726 15.779094602383855 15.03562719937935 -2 1 -1
80 1 14.045763509422189 14.507143807445239 17.84928848449458 0 0 -2
211 1 17.766952542799643 15.271581802120334 14.171823518606761 -1 -1 0
495 1 17.598974438908208 17.29963539859694 15.541915996681096 -1 0 -1
50 1 14.359909412153309 16.704227311744177 15.995920975705674 -2 0 -1
462 1 16.46224197594666 14.814951556114856 0.0056893060682842046 -1 0 -1
19 1 14.142999905711395 14.574041994194083 13.952384915356946 -2 -1 0
365 1 15.909057035774216 17.405694715138445 17.68292656271076 -1 0 0
406 1 16.49347530558918 15.215754304056324 16.32805947856991 -1 -1 -1
169 1 15.669522886728215 16.39957488491178 13.983432404385285 0 0 -1

Velocities

230 1.6793886000277616 -2.5756416639257274 -4.9667316902938055
388 2.557847932753574 -5.495816772816335 2.6235685970978286
39 -4.1559902608812616 0.1478352621159925 0.885530509590213
8 0.7486704055939419 2.153716551131248 -2.4983195857311866
114 2.4863938239855257 -6.882847144292386 8.8120872465059
14 -2.147909585013202 -0.7487650577846978 -3.2232318584374062
472 -0.7711219544080999 -0.1883431999665662 8.498487410049604
48 -4.2356582641088245 -1.3190132741754537 -0.3243759172811862
419 -0.9526046180132135 -1.6353958482317215 -2.7256981287567648
232 -8.556896610145301 -1.4873577146818366 -1.7809880906581124
350 -0.10098254162579048 -0.30463509133799205 -2.642695447337597
117 -3.633241893733241 -2.887003517911428 6.321471221769638
481 -2.4433421024015107 0.9642699487662074 -3.071123454865104
500 -5.424653513866887 -0.5862779277329495 -2.5113607744310698
447 0.5687565160576701 -5.707274128529966 -5.149790339329672
287 2.222401462313364 -2.942557265983832 -1.1856146223429866
314 -0.29596659530124286 -4.087062140351983 1.5329556709814105
105 -2.835389393181771 3.692739972405373 -8.094632613855726
370 -2.327523140906452 6.861628111050666 -4.910120323038112
409 -0.014980557510282511 0.5832320053240091 -4.215000233286375
122 -2.0316144671538585 -2.7496945624366025 -0.5851786934165645
458 -5.550493134225518 -4.597700684226385 0.03904926520319348
46 -4.388418841277931 5.072874249230731 -1.5336960670801234
214 -4.846753297124737 -4.3942149130929 -3.7644685533921143
337 -1.6410618939444588 -0.15962057715076397 1.636146275614488
332 -2.8399325326625315 -0.9505550581682771 -4.726487716162875
146 7.5165165039915065 2.6285072144828816 7.074053431445578
431 -3.6730730305516808 1.975369976469202 -0.7006045639105131
161 3.0845380953161365 1.5459154243459812 0.7890934223721012
343 -4.363361273450011 -3.2144884991658107 -2.3105055298199386
65 -3.1240339317256725 0.48188396664404903 -0.4636816892997826
196 0.14299969919396804 -2.4970537857109565 -6.357050968279414
497 6.506544490971879 -3.6548825900630155 1.931282889641518
21 -1.9846711851209644 6.057833878690691 1.0620238681747503
360 -2.1811424788231726 -2.01924257337965 3.0480872469527207
18 0.6332422164631385 -0.2191049019234427 0.9253159480832231
476 4.103395423291588 -0.8290946972296226 4.179003269037766
191 4.660993659287805 0.8063470896713179 -1.1909481228004983
489 -5.161935624157389 1.0119975204435203 0.249709871678576
265 -1.5807900465359024 2.4158678668210705 -1.7738426973248818
1 -6.471268199693432 -6.659235137975456 -2.4349862029688216
165 -4.8560414136363335 0.12621276831019174 2.2285784486374696
377 -3.475087628703953 4.376632986344053 -3.4927600377194397
216 -1.259314213211476 3.8167240463688183 -1.0920318404258975
488 -2.7310482252935104 -1.1354066774341511 -2.1059277307052016
180 0.11962824097087311 -2.0550626923576916 -0.30239542630549404
305 0.7373078562467411 1.018347289154065 -1.1036510254067007
43 -2.261893300777306 1.077788729586374 2.825656634449968
175 2.5630833345222706 -3.6244155705576375 1.2389912161194183
275 -1.7989874562105073 2.560076029986165 5.987367297224118
413 -1.194056294538436 0.6531699596189579 -5.400268130409966
294 1.2451046524725247 6.447084520175841 5.1797489815802065
351 5.646990302350478 3.2856043814107965 1.143221657951145
101 -0.6835140933899467 0.5150931827556157 0.1592808094119486
375 4.210832182783442 5.874139960873466 -2.1443713632407126
282 -1.3593189873041027 -0.8072880725048549 2.346847245168183
88 -4.834162755366911 -0.5855701581536485 2.956565443241528
26 -3.9488628844538334 1.4645690537348885 0.221187703523942
445 -2.3516886879408414 -2.866824284849633 0.5151220861358192
492 5.070503423232679 2.9458455112553232 0.42340876739119593
383 -4.587562681860316 -1.916917618001226 2.164886024892035
452 1.4051309485593986 -3.3784483216176047 3.2460099826402704
469 -2.029201220566805 -1.7055662613029758 2.078570895958433
387 -7.658043453162317 -2.4657215643271364 0.13081439592175345
53 7.751354655829109 1.0176040677801865 -0.12704154589638944
460 -2.5430923095353153 5.435118849629185 -2.699966516492398
77 9.625123154658963 -8.779464748211984 1.5142428779724655
164 1.071312254514252 -2.192553662512173 -4.471775636360526
380 -1.034219041288256 0.8967101734737871 -2.168036238813148
17 -0.0626698324155255 -1.341354391441773 0.40692040234039084
167 5.18410491829491 -4.1872605984394236 -2.786265738845969
382 -5.9250876202652725 5.2860081194058 -0.9616340510954671
391 3.458623903550241 4.489398793938326 3.137948130352871
149 12.041689904881713 -0.17831002047122493 0.06035244468793778
317 -4.3112805210542104 5.451490767898912 1.4295378364840532
140 -1.1402994797347836 -2.1803933536743765 5.068060125185647
398 0.9887205266759174 -7.3709700894241905 -0.3941621728635618
113 -1.2459340485567159 0.28464849314955043 2.1899758901986885
41 1.7554399344679394 -1.3565142041011669 1.1621477439454861
176 0.9909536032883002 -1.4125736913768405 1.1504081798638939
298 7.3054820419069335 6.9606186790992615 -2.561152702600317
178 5.93884154909957 -7.487027664793745 0.1293725202938304
120 9.120307570433 2.754160678853746 1.8759257521618742
147 1.6988125145378192 -5.6868273087730365 -6.002939552867069
323 -4.486954744893489 -0.9732290010388415 2.932708180256265
353 0.6694830142930046 2.0054271350418578 -0.6312006275435298
423 6.534587672747046 -0.6842735833343389 -3.826430420610285
151 -0.7777490277688451 5.146276755484035 0.2042908460531052
44 -3.076587772139392 -0.8465835567027116 3.7283723141814704
20 -1.9526852599028197 0.5837208005376402 -8.604098852143283
479 -4.488762246384174 2.9806725799192026 5.141007079716098
217 -2.4865438032443365 -0.9584355393192842 -3.790934288175974
304 -2.998898144406453 2.8140298451889363 -3.633373182196337
378 -1.986011460209133 -4.137293690433256 3.794365501969941
415 1.7401418585329764 2.034108581056307 2.6544298934468173
84 2.6184028134272763 -0.5085140362262256 0.7419450215306811
249 3.008738904141935 -1.1192562303944653 0.3566096712487148
222 -1.4380846902652538 2.087330441559884 4.05966673680193
12 4.786024139322828 -0.5153783560706824 4.0676213961119085
198 0.5342784812963361 4.800088538231323 0.6097260066697534
414 -4.612811644433798 -4.242429747808269 -3.03136125296393
59 0.21280227114538255 2.50510892297486 -2.2952061208932855
244 1.419064902062951 4.796722730650392 -9.81222082822387
262 2.781080143588008 7.221485687126348 1.1961818783228786
138 0.008056516292224876 -3.2479048046786043 -5.765538663269204
212 -0.8761786618211814 1.588350272021341 -5.659235144023875
450 0.45352479412415697 4.578361062351722 -2.469776301205212
379 -0.29944554912967986 -9.022446219583495 1.8751940008956078
446 -0.979514211050979 -0.423914687311288 -0.07017262597182725
484 -3.411203281757559 2.659408868971849 1.1131014251003188
493 -4.131829987751703 -6.2421612889018805 -3.8598211753570397
96 1.5760257861120626 4.4233630828434665 2.43990191693739
172 3.8080523004752695 -4.613197783519372 2.9039906663297104
329 3.9168634350823086 0.3427657730350168 2.8731966888092066
47 12.361723540732422 3.0066582016839702 1.4512409950380303
192 1.5708382173363575 3.3408906094043416 5.628898532165706
454 1.2507810712154541 1.591023766457021 -3.777904086359238
356 1.4846108077444444 -2.214609324270249 -2.8299853829533133
321 -1.0548911460218051 2.4091028834581487 2.098310291876999
219 0.9414240623193887 1.9923784956838326 -7.669047470994015
255 -5.921171057797696 1.1385827586682469 -2.0860698143236354
399 -1.0632171714251988 0.997862991824913 0.014471971007569471
490 3.6890171354706327 -0.8782802507698673 -0.6819912329284559
92 -3.104755495524352 -0.4729084119814429 3.9181054857069304
358 -3.4171335710505613 0.37433532430347943 -3.593563200986555
381 1.26102555086245 0.1397436820359355 2.1204037422844646
103 0.5100787418385542 4.4435210331522095 0.058881946318458625
179 0.284512988502393 -0.30086862977231216 3.1775079464719074
23 -1.02814905960613 1.4941625046867661 3.614581752789361
411 1.5433046381674251 -2.012900242377614 -2.2930653960182976
228 -7.331066503000828 0.32827417371371737 0.21250351702874706
9 2.4902158857311054 0.4919841660799783 2.3444565384633127
111 -1.7722903142555704 -4.897825891095871 -1.7105789850924145
95 6.469046171507482 -1.20932237281907 -3.313463430937346
341 -1.8045091164163338 1.0176743155431638 3.298585604549275
203 4.868603100528096 1.6401013448312578 1.5213827018040758
392 3.3861300876227785 2.049044442647384 -2.037608613880921
477 2.409626341839402 3.39006726657484 0.13519907000669956
38 4.414466405973237 0.009851931158545412 -0.5907805682090962
237 -2.2134654238080835 -5.085815619912833 0.6955594992576097
173 5.043406282697617 -2.200142457932262 0.34288814750098306
475 0.1050240499424427 -0.7879984065020681 -4.967196059463782
62 2.3252897399210917 -1.7864640651841461 0.8326232285705246
297 1.3850555386131365 1.1118771048301619 -0.2097621303728411
340 -0.1453925824023831 3.8696802611405845 -7.224698938451005
158 -0.0491787850151493 -3.9859394968748734 -5.754813713977707
227 -2.457316908889845 -1.2554842255116754 -0.0834002571056432
42 5.699922353171663 -8.751595425447187 0.7124759008670094
311 3.7624941910282823 1.1934725231399368 -1.9683449124122463
127 1.924492555980453 -2.527215721888725 -2.6189475147171275
6 5.39541615648004 -4.345578688066036 -2.86006763491975
250 -2.952686532394766 -4.8028549272858365 2.056096806754883
449 -1.2715604820329962 8.13597854295905 -3.204459748399312
160 4.812085876503162 -3.2587253786232 -4.474914820623509
129 -1.0949028979488715 0.8362479271203861 -2.05407694917616
289 4.3003113857883655 7.760848974887363 5.33838070009534
93 0.6944804278348299 2.2836303765303625 1.942325300950811
185 5.13247369338285 2.008343987258522 0.5557770132027429
440 3.3566008749668703 3.0063214382517094 -2.7853584091444725
347 -6.380097216386382 0.1619610721299007 1.1356667786627772
260 2.618125407520116 -1.45758403582775 2.04250075898731
128 3.720736416377773 -3.4626387614058154 -0.5596518471598007
498 1.8278751943193605 4.5464295212130486 -2.1435180353101306
213 2.7565869922378905 4.3852859937468445 -7.663640310847345
30 1.0277713753061801 0.4910384191696097 3.373020603650977
296 -2.807441167986989 -1.804315468894532 4.262650237622989
253 -0.3832999023395096 -0.2245955144911039 2.0160702046241674
132 0.5326424677308426 -2.5086662980105174 -4.550337058674822
394 -0.26838348905632575 -0.3322261984036476 -3.3264517907136373
145 -1.2298847303246319 -2.0747880729848167 6.213524857799973
79 0.5908962409796212 4.446819580575517 5.463891720670643
205 0.42119242442651134 -1.114568171372089 -7.235183990280934
293 5.643920137999997 -3.735360303235798 8.836256590018962
171 1.74891083695216 -1.836372788670336 -7.418090299296583
412 5.119341296971814 6.794279367539809 2.9117571539169176
182 11.306517782673264 4.211367678663117 5.280361487497131
75 2.467990971388457 -1.6296092985210788 -5.427518730156569
40 -1.065316277635972 4.996070658203953 4.809873059075552
135 -8.453045762220482 -3.45810021315771 1.1374779851332963
130 7.017949246198823 -2.2887076922533516 1.4646274245179502
339 4.191465097888384 4.473082614701167 1.741777394351429
51 3.741368399341119 3.340441465216408 0.13902245230373778
266 -3.78588552233672 0.7954815629634777 0.8773538631028365
11 -6.103351561235739 3.1976146435398536 2.2103239444146046
56 1.9639553855530723 2.736840022797272 -2.5104959228803265
439 -3.1829656503204116 -0.8332742968349366 -2.460847756951081
485 4.188036732969608 1.84605383578069 -3.673129077039593
5 5.951339771413874 1.3944998852552266 -2.7203435382152894
313 1.3373688235674404 -1.321655925207334 1.6828613933500602
258 -2.0639917967998245 -0.025083220985318563 -1.1536708737447456
349 -0.2634850566286003 -0.0433316734751492 3.2064885774084395
104 -10.290973041477068 -0.8563552695531347 0.29247672768500393
427 -6.432111594176859 2.9673050459687977 6.061156529795648
389 -0.9376377527320916 -2.102077099913313 1.4753514909833323
247 2.5280510259383235 -5.543431790272386 3.7967385096144945
229 -0.8688589178465683 -2.692421349196287 2.4828724190114184
201 1.5926057465499999 6.07369886693638 -3.638071560065924
491 -0.739871957958072 -5.247885542088308 3.5225148585105943
25 1.4527324105140715 1.6670856127315823 -7.441735522782365
32 -2.7974217913123227 -4.933579522042492 -3.0463901987227233
148 0.45678201718962985 4.99894862638196 -0.7797806186923516
397 -7.7918074498212295 -2.499756877367737 1.5660826546994866
390 2.3425950947085026 -2.000306675271697 5.829656945957158
107 6.556689745623834 9.427171288415924 0.18753876936426858
246 5.83882768085518 -2.2449890235753394 3.174332107288933
121 2.1396971943860295 0.3934718867796618 2.9744440394601885
259 -1.860277883286854 -4.979670545220744 0.7205751786747882
366 -3.432867962357308 0.10804907307496478 -3.6010189312710956
272 -0.5663593769297535 -9.084645631486781 -3.8682965657104633
153 -4.860317993041156 -1.7780867400821765 -1.9112325737621292
357 -2.5174702426603863 -2.545901937828981 -5.303853544889092
231 3.205675650708533 2.6517281169839286 -4.665391901664434
137 -3.3268124470847407 -6.951347417367591 0.8075165078145821
466 -0.45010670685192183 -0.8736189427924119 -3.562040279121592
306 -5.0267784411860905 1.4035429099115164 4.2690227519318995
352 0.8965913902723848 -0.5324363877717623 3.8809257259016134
248 -3.1759115026118288 4.193946772490225 -0.8011246464385645
291 -3.9078658464986296 -1.335521787528395 0.8719338389532981
312 -5.03352965841753 -5.258003398477881 2.3735908611237093
94 -2.786016947749798 -1.4878485783024626 -4.048430782050089
63 0.21813873925831584 -5.356181221901204 0.5221638846038109
241 -0.7758991345148097 6.917934578092538 -1.6233797649781196
157 -5.183849175727288 -1.499350465259952 4.175521694382956
10 -0.9603058943332047 -7.616915594368026 6.898486681028245
220 5.52326763640355 1.319314224091935 1.7300048954155511
464 2.1638627798751418 -6.243258455468513 -2.1625709715638224
204 -1.7856866822731365 5.285014616222192 2.980045071509111
195 -2.4439295618001475 0.04332191426093715 2.564448304596014
320 1.230905132027743 1.4357749450331636 -1.3878239405544264
86 -0.46249612803733736 1.2349177295452152 2.7298949199279248
87 2.881135527593721 -8.688079313129643 -7.118432953682184
54 4.490127823861289 -5.437541606505984 3.5103443575062854
29 1.518106989916987 2.414471609012003 -2.1810104354847164
393 0.20073423027460136 2.7143846473311974 -0.18267278396103445
426 1.8057536915956198 3.756537765014635 4.252090251530506
13 -1.3371666938611513 7.022791557872342 -0.10710976120805946
16 3.295576638679346 -4.296400922970356 -2.580727212749951
396 -2.2585046401307562 -2.9703667218186216 -1.8528350627602113
242 4.6111214874997835 2.132242936854709 -4.190998350536245
369 0.6680278030162553 2.0325328448167173 -0.7452144658241574
254 -6.947480746488173 -7.2571544829106625 -4.492731878250607
322 1.3179606139221636 6.501688012379092 2.5660678887926838
152 4.088420725616285 0.48500181511836576 0.09546123909769952
142 2.075419316547287 3.7085626085132475 2.8892261337511957
155 0.8024452819889527 -2.064478826084449 2.046733799986226
81 -1.5029671862491913 2.0238805286951904 -4.715314199612959
187 -1.184669154703661 -1.2905175520432348 -1.973932153475165
278 3.153333003781685 6.923344204520818 2.440073619949109
85 -1.672296016699325 4.1614079192166376 -2.343821222732098
206 -2.385418144855458 -3.8827449127644997 -2.5068307486667294
424 -5.306341412696506 1.6402254160462149 -3.263507998363691
330 -1.2892353183936016 1.955134745008352 -3.9966960256166733
364 -0.34131782257356863 -0.6854472947243697 -1.2747211971999721
309 -1.4628103707282094 2.7677661773427094 3.870273599326312
31 -0.2306708584948386 0.4275637275396088 2.780486529776535
209 -4.036489193441506 0.8098027686607088 0.10228298492173193
407 -7.850303898782771 -0.6289090458262852 0.9694852883820271
3 3.7084759301339796 -6.502477218401254 -2.8657567073230754
359 -6.789320903127245 -1.8095858908976235 3.076435264324353
474 -2.760986236799161 0.05865458443207887 0.3010430328028443
467 -0.5791591884853249 3.8322685105292367 0.6577607649846214
125 -3.0791190450228094 -2.663611439573809 -4.048527547157441
290 -1.9514029902314136 1.6322148754230739 -1.5492755728413947
82 -0.15946237715493708 3.357635423843947 0.40957530755922994
416 2.4826565340738465 7.093322784944213 1.4240561310620499
245 1.3556477538386291 3.458190107531228 -4.058966279048519
451 4.160027694295567 0.0043666581895118245 3.4958280068788787
371 0.815801243455759 1.344372076308913 3.626540183859429
461 -3.997478990014479 2.781548599471534 9.908239112549078
295 -5.825218647511983 -0.86253608010988 -4.580086472258047
261 -3.416790363703977 -2.539742596072643 1.8112345581916243
109 1.363832237560385 1.4189845443871856 5.096015945012126
363 2.3638344971146785 -4.205660888962249 -2.4837897502037953
303 1.2129927238336724 -1.5867226795151608 -3.0637464358856534
134 5.107233158709472 -1.9418318087245932 0.21265620856930068
224 -5.666845187199555 -3.5294061724776253 -4.822038384076226
2 1.7547650316709493 5.114347838273688 0.4914452192139983
159 -2.391158645757948 -0.60741512630771 -1.1771689685958469
71 -2.7319927784487787 -7.425026858810161 7.0530631363423595
270 -3.5834088962011266 -6.010732506614343 -6.055941904921945
240 1.6099346700228918 1.2793296756008021 1.9342118143738736
432 -2.9194577942112434 -2.6628260232687477 2.5817065151694734
183 -2.8250171162482856 -2.6475454335685695 -0.06754733302053541
283 0.42369304805709285 4.947403688658348 -0.41109288158251955
436 -1.0889169934719976 -4.671398303841519 3.5767818974218772
327 2.3898410602659372 0.7809890647154287 -0.5322433667945947
372 -0.008661533214740719 -0.7443886034383936 -1.052802295764649
429 -3.6609557528618133 5.393927992654844 1.3859756208864653
197 -7.07328527048944 0.4993217092912229 -1.408737263895944
459 1.0006279099543223 3.3447572518627693 -4.352986488268966
202 6.984305167593304 0.9725826882546973 -1.5918906604376137
420 4.5826103817305475 -4.458880170805278 2.4051777685516575
131 -3.2212761397292935 0.25117168444646937 2.401569323566137
190 -6.725100378386352 5.427354523333388 -5.2282863964533135
200 0.7684737238039928 -3.92406750371332 -3.729065958556459
97 -0.31080128552389513 8.581071304705983 -1.2049217806971464
154 1.7241687031763104 -1.897015966921835 -0.6334224122143381
210 -3.439145058566439 0.09208013864125887 1.9464658692362016
335 2.21935742107533 -0.004817611832998095 5.616029241778606
74 0.8461708185087103 5.657629601877094 4.656803682936463
425 -3.964896229666803 -1.3836173141055732 0.9087868425853709
99 0.06627131298563654 0.13880433572063552 -2.9961746320645815
438 5.775473971308023 1.662450087198634 -2.6130688056958014
76 3.3407134364193154 1.9048130750366914 -4.063837172629923
22 3.247482955059773 -5.498104449980402 -2.7326442200551178
67 1.008356607805797 3.4554006528870858 -1.0781868472149663
280 -6.760718907194626 -2.8131885129690346 2.5352393711659342
328 -0.5787651541695004 -3.7903867958993973 -4.53843353395576
374 -4.5586667888258825 -2.0961961106307605 0.3799359504286846
471 1.5301218740921767 -2.103662346062662 3.0823254670588374
410 -4.1914692749299345 -1.1424466710591887 -0.5271082827487901
215 -4.010363869480647 -0.5025841575924536 3.2613482963678466
257 3.65842095112667 2.5950272491524338 -8.270200400237027
463 -4.790252894053508 -0.8484830082181714 -1.8123640692783998
33 -1.3386681012984467 -2.353647421425802 0.24891415715951512
7 0.4492165454212445 -0.0673151887120173 4.124213411712041
90 5.002663898364529 -2.88563970887832 5.7326074722430365
60 -2.567282732392732 0.01843867354819578 -2.624522089281984
150 6.217239159276279 -0.3302536751076117 2.9208274639789753
264 2.920111867565227 -0.35161226588809474 1.1148113293028366
52 -2.2989155067273717 6.838087740052281 1.730852771269172
108 0.41661521160057907 -2.1480143497696838 -2.6087564424239167
404 2.7491759523592147 3.52355697233936 -2.9622720689881117
437 -0.8881080896421849 3.8377103537064166 2.425398488487193
288 2.362662018984239 1.6019660609331634 1.0791943237662083
61 3.1209595852366983 -4.427383094806229 2.3161788071319602
310 -0.061625106644059034 0.012467714187725559 7.127959299006067
308 -5.985069875210865 1.7579078274017377 0.741246329037846
301 -4.931461243945281 -5.0263463510767705 1.855484923120116
218 3.2994970899894382 -3.825279150603276 -1.7183034967473727
325 2.064555146686876 2.0895405333945236 -5.167539354725213
422 3.0098257609410988 1.3841629617507836 1.8349957792105964
100 5.742787844552513 4.727397710763358 1.6736277991981663
91 -1.7933820533734037 -2.982351106914272 1.3293519560949572
299 5.162950912704655 -1.7307348975438708 -1.6841452090045124
223 -0.6601018047578081 0.38398262852902704 4.657525132473121
418 -3.573800891564618 0.38602570784395507 0.34212960467860437
434 -0.5159656531813616 4.73846038731653 0.28336667461802023
405 2.6468044870491774 6.044184126453318 -1.6615478284024716
256 -2.404863127783151 -1.696726446853899 -7.773446121729907
355 2.273565304528876 3.8725192742541346 2.010703508854812
36 -4.361760065940343 -2.9482333782954027 3.4711669179288007
70 -5.144730718167203 0.8165455120270961 0.3520656087577973
345 3.3011959265641537 1.4719256727750278 -1.913224914898649
263 -0.8863614622608214 -1.4622111313091204 -9.078670228825171
361 -0.36243661997436355 -4.978212838160167 -3.6313254593050246
235 0.29707663668696177 -3.6304337126880495 1.1055323294211106
456 0.9757181045001337 -0.9480226378622622 -1.513294099588067
284 -0.28556294462025356 -8.827641865024694 2.829373588446897
344 -0.17061400815106614 -0.07762625437123066 3.412270826884751
281 4.424303420262893 8.238266933318785 1.736426067681626
395 3.2594305904888246 2.388712411916503 -0.17608865302072943
486 -1.9896864684678743 0.4883366965902448 1.599310319031041
403 -5.196382204099469 -0.7421129029415572 7.21429391386011
421 1.4294582813598602 -0.8206531398290361 -6.245412432406662
73 -2.6535051845350672 4.607744969829494 -2.482610016177179
448 1.2575264241778983 3.2641488901207123 -0.1529326069325432
269 2.740188530078514 1.2504752285990925 3.116709951794598
307 -1.0972978449988258 2.988967953667445 -2.6632533821111513
188 -2.66477988203477 -2.346104932948021 1.6560253948716992
4 -1.9960376634449457 8.803626263686269 -2.498463917723433
385 0.5393352375152523 -3.689552440537589 -1.1527330998139937
286 -0.695110494083771 3.353200404250675 -6.922734364663505
400 1.9501213892813825 -3.672137779338183 0.35317800910301
402 -2.7705047770391458 -3.57844696068143 0.28148353308441626
144 -0.31793250188469974 2.2881294889201307 -2.656035351433519
184 -5.375278529495442 0.09037537022969379 -4.181776536741108
199 -1.9716772281843973 1.9376985498848753 0.26532158683227053
194 -3.4871413736263572 -1.3456203418078623 1.0951619297958246
139 -1.4828815319067705 0.05470892261315276 -2.5511700135536914
273 -0.2657308522064718 7.143971377507319 -4.098037028868419
279 -4.519939118417958 0.2189856321132569 1.4515277204692467
83 -2.7842829732111922 -5.360756810957553 1.504346506108445
102 5.3236696717363365 -0.4892314894526729 -0.1414821839731839
333 -1.1026749445671695 3.5576541224188625 -3.517786703356161
112 4.1719418092798755 0.5033960840591473 -2.037738952064278
251 -1.7563012059989964 -3.6331636592383654 -2.187818122779632
430 -6.724582827688973 -3.272457172139026 -3.6671506152903266
163 -1.4326935800265268 -1.6333120248982294 1.1732486713859887
326 -2.3163102250524563 -1.488966064377039 -0.6799251027823557
64 -5.151556329552494 2.1896634496646534 2.4432947928376225
455 1.2065274530182823 0.20983802220030184 -4.936865520980602
368 -0.6450400497227001 6.264489733360007 2.4471616693499856
318 1.7096477536918573 3.8184340046508876 5.191186038234336
334 -2.853978097242286 4.230753302152408 -2.2562625582913802
274 4.75957280043404 -0.36032726696270256 3.097863051146923
89 1.7618738082328969 -1.1808569153645496 4.4324064032411
300 3.4505207882091593 -1.7082668688745917 -3.1985482277083115
106 10.11974087011611 2.0464653307867176 -0.2614666231730088
27 3.152348923328022 2.6416643202440393 5.333892224675985
252 4.340731679100481 -0.5815321493663096 6.716761144010371
234 5.219307982263795 2.2578945642998796 1.8297596626768613
480 -2.11255213898419 0.17550711119266865 4.246599088352301
133 -1.7200594100138944 0.9514643381867041 -5.436200983018061
483 -2.205515418042188 3.6270573654672846 5.264392632312914
124 -5.092614500120509 -4.825708794730889 -0.024466833187268448
487 -0.01981843733703518 1.3832018624978233 -4.502635951577083
55 4.159620155124212 -0.5886545660529973 1.4167309104513293
348 -1.6161855548710136 1.5445338591476 1.4893861146073555
45 4.328521960270345 3.3977181186433834 -5.289022888991589
174 2.5322064829112385 0.4854190522562296 -1.4081862852653624
177 2.333564488695998 -6.012328815092989 -2.6732885244686586
78 -0.32766108453685444 2.1597304926071232 9.181039904102512
324 -1.6817452647371485 1.3547011423752515 2.7786761014621577
68 3.8091843702976456 2.317898055200183 2.320974880177977
238 -4.033259779778418 1.616701052741905 -4.222822593358049
119 3.2265980382881714 -6.31807848515079 4.323744789662305
276 3.3569873096624456 5.409741155877153 2.274966061227928
346 -4.590588541069232 0.5837398470280906 2.571116851101029
302 6.380868411575775 5.554715648775619 -0.17513155569817498
116 -0.1313985054496854 -0.5487215543157365 -0.805506797515227
338 -1.0400336497565283 -7.170258452185753 -1.6217774527107778
181 -1.6232804393983464 -0.9914070175768148 -0.6176982641338499
386 -1.9271229951776387 3.3230198407007783 -2.585915379627986
473 -2.599681425970217 -7.275243147866571 -2.9854647380019474
207 1.0144919055994388 2.8993332578171196 3.928133085227053
239 -1.3273508920064538 1.9900915882162302 -0.8935554174700462
35 3.726503416430965 -0.03450864518384305 5.540516293013378
57 -6.765811918104016 -5.296285283493619 -3.80291251410386
433 1.99438070246041 -3.969593520300148 4.808325572685616
58 -1.669832198086065 -2.266846324928279 -2.652482872307739
441 -0.6754128627986077 -3.2589392241868183 3.930970161492199
193 0.5412964426332189 1.1932321654459752 -0.6203698922164164
98 -1.2190947821812177 2.75090583519928 4.419194957838591
277 5.553783184435218 -2.066909777999073 2.271237345070738
268 2.218433521026312 0.2648707453619285 -3.3205213629010792
189 4.201733926121632 0.7408085469205838 5.315751897556656
141 1.5214094600779682 -5.325229735345642 4.039080911861363
208 1.1566826778616908 10.604890698152365 -2.6600044219046293
24 -2.817018140499512 -5.935520459456517 4.9932477652626
336 -2.6278762729569465 -2.2651132837969787 -3.0527652418440883
168 -1.2680791688597157 1.9374226681350075 3.37874679315963
319 -3.2264535494140545 0.5646538501392535 2.465659001953896
267 -0.3944381426802195 -0.9352073753294047 1.334824838806005
115 -6.205074634045425 -3.6935878216843516 0.49839884758080516
442 -8.70755019176797 6.720590461128309 6.541155361489164
271 2.5310674392580372 -4.703819003318311 0.796857543033576
233 -3.0120310171332902 -0.253804498432419 3.65463923115487
226 7.666039533884945 -5.968458094923761 -2.2310360592905547
316 -0.323896727391128 -0.43446009941887326 -0.8870316087917434
118 6.3917112442316615 -6.898153110261956 4.4042816514783665
465 -3.9226641921018697 0.7760944647478963 1.889409466472849
408 5.925063571987953 -0.5656238825738445 -4.493529644297638
315 4.813405985963606 -3.7532867648246913 2.5869242410626336
428 -4.238990048358698 -3.731642444266917 -4.628617993099168
384 -1.334522050419458 -2.6794757748340525 -2.2314360612484307
367 -6.521414456137712 0.5538413266017295 -1.7211037437658758
225 7.332849446843995 -1.4740445288432442 2.579493118158617
136 -3.1275065958037485 -1.1613032813947075 7.46508365281896
285 -2.7679433139627574 5.539742419570271 -3.3792456099045816
373 1.0899010165661613 4.966062450694644 -4.93648747473035
69 3.5872499078571307 10.59236706063784 0.35512889165419
186 -1.5129698112257395 -3.3272655167587186 5.413652615744657
342 4.0152167323728785 3.0339116895469505 -2.4849752816365602
123 -6.29835477025811 -0.07367725267402378 4.292543538645975
34 -6.03126742019297 -4.463344782417279 -0.33926700290225126
376 4.521783121054396 -2.0913969387531246 2.000607916734766
470 -1.1347501480075184 3.7261276021637975 -2.74493766432895
49 0.6176104116796131 -4.261305934085539 -0.07396477492033537
37 1.9327900874889108 -2.6548953180033203 -2.5095275118902136
362 7.929731693693806 2.0086706789677526 -7.80900343595907
162 -2.7757782470095247 2.43195880296271 1.3411730435533413
331 6.6095076313322 7.2671184005524365 1.4921593730643563
28 1.91094946790153 -4.020296901710758 -1.8460193020145739
444 -1.7624149087529815 4.712765148872124 -2.4175617701294096
156 3.147054086701939 -0.5812602117906495 -0.1704722272043253
15 3.26011267361459 -1.7642941100296272 -0.05452010670587496
468 -3.059128659782737 4.284129374460559 -1.1260764109950008
72 3.469610948816759 0.6258049353145517 2.396741263780566
401 -4.678139962312364 -2.505886571093318 6.045916133060433
166 6.550907318908199 -1.5016344651369418 -1.5447912145416345
457 -1.204256539563515 -0.5030040886860647 -5.461477387925792
66 -0.002668280531987366 -4.107611424572162 5.38172608946719
478 -3.5231995931946045 -2.2839650151669315 10.034597847625058
126 -5.362794554817076 -3.2954089935943993 6.986970691336607
499 1.7146528597860375 -3.086207236721047 -7.438849439354588
417 -3.2816453979872686 2.1343933727025535 11.332343439064584
292 -6.123519111964657 -1.973286079801681 0.6830636924776722
443 3.1700703970389768 5.98290128217467 -2.2371716398578303
221 0.7198130906460133 0.06419535413401614 2.1620562840450455
496 1.9614829718985272 2.0209508942871763 -3.2165317147156247
243 2.952397465999868 -6.020587565077745 -2.0506106348938173
354 -1.582331582470322 -4.772358925298843 -7.790925297357904
110 -3.0345061398650346 0.7197325242064825 0.9600437373965758
435 -4.197434147320854 -1.2784992096664531 -6.723423134451413
236 -3.7479414646433575 -1.2537598016077585 3.5870762973506087
494 -3.2662600187599597 0.8955581019268462 5.450733961978651
143 5.973651470309374 5.190304552812475 -4.817098561744143
453 -0.6982499608069356 -1.2437520735971492 4.061222826927847
170 -6.7253266185689435 -4.391937856769617 -0.12171510019159162
482 6.565405466948427 5.011602263970492 -1.8275473018430453
80 -4.786939045321234 0.4923033642877826 1.2220931719302721
211 1.9129442206297447 2.5594733492215607 2.0619511386766836
495 3.006525820999719 -2.2482571613641924 2.6732931361444154
50 0.9468080079162607 -2.4932736960234756 -1.6914571318398006
462 3.2791298837357896 5.164261241360425 2.7298667545669053
19 1.390919698480793 4.532325721930461 -2.373565152115829
365 2.5336697727747444 2.6500216434062227 -1.7839111260240406
406 7.1213250233532515 -7.810618358703089 -5.0443485955894145
169 2.1785914020363175 0.6256991218715817 -1.3090585750694084
